! Touchstone file converted from gerber2ems Port_0_data.csv
! Assumption: Channel is reciprocal and symmetric (S11=S22, S21=S12)
# GHz S MA R 50.0
2.000000e-01 1.183443e-02 -124.087475 1.004825e+00 -9.505490 1.004825e+00 -9.505490 1.183443e-02 -124.087475
2.058000e-01 1.179493e-02 -124.499890 1.004821e+00 -9.758801 1.004821e+00 -9.758801 1.179493e-02 -124.499890
2.116000e-01 1.177134e-02 -124.899127 1.004816e+00 -10.012890 1.004816e+00 -10.012890 1.177134e-02 -124.899127
2.174000e-01 1.176273e-02 -125.287822 1.004809e+00 -10.267713 1.004809e+00 -10.267713 1.176273e-02 -125.287822
2.232000e-01 1.176819e-02 -125.668380 1.004804e+00 -10.523258 1.004804e+00 -10.523258 1.176819e-02 -125.668380
2.290000e-01 1.178693e-02 -126.043209 1.004796e+00 -10.779393 1.004796e+00 -10.779393 1.178693e-02 -126.043209
2.348000e-01 1.181821e-02 -126.414486 1.004788e+00 -11.036158 1.004788e+00 -11.036158 1.181821e-02 -126.414486
2.406000e-01 1.186132e-02 -126.784273 1.004778e+00 -11.293468 1.004778e+00 -11.293468 1.186132e-02 -126.784273
2.464000e-01 1.191557e-02 -127.154346 1.004767e+00 -11.551368 1.004767e+00 -11.551368 1.191557e-02 -127.154346
2.522000e-01 1.198037e-02 -127.526425 1.004754e+00 -11.809714 1.004754e+00 -11.809714 1.198037e-02 -127.526425
2.580000e-01 1.205510e-02 -127.901999 1.004740e+00 -12.068617 1.004740e+00 -12.068617 1.205510e-02 -127.901999
2.638000e-01 1.213918e-02 -128.282386 1.004724e+00 -12.327915 1.004724e+00 -12.327915 1.213918e-02 -128.282386
2.696000e-01 1.223209e-02 -128.668788 1.004705e+00 -12.587688 1.004705e+00 -12.587688 1.223209e-02 -128.668788
2.754000e-01 1.233329e-02 -129.062124 1.004685e+00 -12.847868 1.004685e+00 -12.847868 1.233329e-02 -129.062124
2.812000e-01 1.244230e-02 -129.463194 1.004663e+00 -13.108421 1.004663e+00 -13.108421 1.244230e-02 -129.463194
2.870000e-01 1.255861e-02 -129.872687 1.004638e+00 -13.369300 1.004638e+00 -13.369300 1.255861e-02 -129.872687
2.928000e-01 1.268177e-02 -130.291061 1.004610e+00 -13.630563 1.004610e+00 -13.630563 1.268177e-02 -130.291061
2.986000e-01 1.281132e-02 -130.718774 1.004581e+00 -13.892158 1.004581e+00 -13.892158 1.281132e-02 -130.718774
3.044000e-01 1.294681e-02 -131.155998 1.004547e+00 -14.154006 1.004547e+00 -14.154006 1.294681e-02 -131.155998
3.102000e-01 1.308784e-02 -131.602791 1.004511e+00 -14.416208 1.004511e+00 -14.416208 1.308784e-02 -131.602791
3.160000e-01 1.323400e-02 -132.059323 1.004473e+00 -14.678600 1.004473e+00 -14.678600 1.323400e-02 -132.059323
3.218000e-01 1.338490e-02 -132.525424 1.004430e+00 -14.941267 1.004430e+00 -14.941267 1.338490e-02 -132.525424
3.276000e-01 1.354014e-02 -133.000865 1.004385e+00 -15.204146 1.004385e+00 -15.204146 1.354014e-02 -133.000865
3.334000e-01 1.369936e-02 -133.485587 1.004337e+00 -15.467242 1.004337e+00 -15.467242 1.369936e-02 -133.485587
3.392000e-01 1.386222e-02 -133.979133 1.004285e+00 -15.730522 1.004285e+00 -15.730522 1.386222e-02 -133.979133
3.450000e-01 1.402831e-02 -134.481388 1.004231e+00 -15.993916 1.004231e+00 -15.993916 1.402831e-02 -134.481388
3.508000e-01 1.419743e-02 -134.991435 1.004173e+00 -16.257511 1.004173e+00 -16.257511 1.419743e-02 -134.991435
3.566000e-01 1.436912e-02 -135.509217 1.004111e+00 -16.521192 1.004111e+00 -16.521192 1.436912e-02 -135.509217
3.624000e-01 1.454324e-02 -136.034390 1.004046e+00 -16.784965 1.004046e+00 -16.784965 1.454324e-02 -136.034390
3.682000e-01 1.471926e-02 -136.566324 1.003978e+00 -17.048898 1.003978e+00 -17.048898 1.471926e-02 -136.566324
3.740000e-01 1.489704e-02 -137.103816 1.003907e+00 -17.312814 1.003907e+00 -17.312814 1.489704e-02 -137.103816
3.798000e-01 1.507627e-02 -137.647667 1.003833e+00 -17.576833 1.003833e+00 -17.576833 1.507627e-02 -137.647667
3.856000e-01 1.525679e-02 -138.196217 1.003756e+00 -17.840869 1.003756e+00 -17.840869 1.525679e-02 -138.196217
3.914000e-01 1.543821e-02 -138.749121 1.003675e+00 -18.104974 1.003675e+00 -18.104974 1.543821e-02 -138.749121
3.972000e-01 1.562038e-02 -139.305922 1.003592e+00 -18.369015 1.003592e+00 -18.369015 1.562038e-02 -139.305922
4.030000e-01 1.580303e-02 -139.866389 1.003505e+00 -18.633052 1.003505e+00 -18.633052 1.580303e-02 -139.866389
4.088000e-01 1.598594e-02 -140.429377 1.003417e+00 -18.897082 1.003417e+00 -18.897082 1.598594e-02 -140.429377
4.146000e-01 1.616895e-02 -140.994772 1.003327e+00 -19.161078 1.003327e+00 -19.161078 1.616895e-02 -140.994772
4.204000e-01 1.635183e-02 -141.561542 1.003233e+00 -19.425000 1.003233e+00 -19.425000 1.635183e-02 -141.561542
4.262000e-01 1.653436e-02 -142.129916 1.003138e+00 -19.688829 1.003138e+00 -19.688829 1.653436e-02 -142.129916
4.320000e-01 1.671647e-02 -142.698233 1.003040e+00 -19.952596 1.003040e+00 -19.952596 1.671647e-02 -142.698233
4.378000e-01 1.689789e-02 -143.267008 1.002942e+00 -20.216249 1.002942e+00 -20.216249 1.689789e-02 -143.267008
4.436000e-01 1.707859e-02 -143.834981 1.002841e+00 -20.479792 1.002841e+00 -20.479792 1.707859e-02 -143.834981
4.494000e-01 1.725835e-02 -144.402381 1.002740e+00 -20.743238 1.002740e+00 -20.743238 1.725835e-02 -144.402381
4.552000e-01 1.743709e-02 -144.968349 1.002637e+00 -21.006558 1.002637e+00 -21.006558 1.743709e-02 -144.968349
4.610000e-01 1.761468e-02 -145.532082 1.002534e+00 -21.269780 1.002534e+00 -21.269780 1.761468e-02 -145.532082
4.668000e-01 1.779097e-02 -146.093523 1.002430e+00 -21.532814 1.002430e+00 -21.532814 1.779097e-02 -146.093523
4.726000e-01 1.796591e-02 -146.652157 1.002327e+00 -21.795698 1.002327e+00 -21.795698 1.796591e-02 -146.652157
4.784000e-01 1.813943e-02 -147.207583 1.002222e+00 -22.058457 1.002222e+00 -22.058457 1.813943e-02 -147.207583
4.842000e-01 1.831152e-02 -147.759570 1.002119e+00 -22.320992 1.002119e+00 -22.320992 1.831152e-02 -147.759570
4.900000e-01 1.848195e-02 -148.307375 1.002016e+00 -22.583452 1.002016e+00 -22.583452 1.848195e-02 -148.307375
4.958000e-01 1.865079e-02 -148.850940 1.001915e+00 -22.845752 1.001915e+00 -22.845752 1.865079e-02 -148.850940
5.016000e-01 1.881806e-02 -149.389864 1.001814e+00 -23.107852 1.001814e+00 -23.107852 1.881806e-02 -149.389864
5.074000e-01 1.898357e-02 -149.923746 1.001715e+00 -23.369837 1.001715e+00 -23.369837 1.898357e-02 -149.923746
5.132000e-01 1.914740e-02 -150.452300 1.001618e+00 -23.631604 1.001618e+00 -23.631604 1.914740e-02 -150.452300
5.190000e-01 1.930956e-02 -150.975353 1.001523e+00 -23.893268 1.001523e+00 -23.893268 1.930956e-02 -150.975353
5.248000e-01 1.947003e-02 -151.492619 1.001430e+00 -24.154823 1.001430e+00 -24.154823 1.947003e-02 -151.492619
5.306000e-01 1.962879e-02 -152.003812 1.001340e+00 -24.416155 1.001340e+00 -24.416155 1.962879e-02 -152.003812
5.364000e-01 1.978590e-02 -152.508703 1.001253e+00 -24.677418 1.001253e+00 -24.677418 1.978590e-02 -152.508703
5.422000e-01 1.994134e-02 -153.007176 1.001169e+00 -24.938567 1.001169e+00 -24.938567 1.994134e-02 -153.007176
5.480000e-01 2.009526e-02 -153.499118 1.001087e+00 -25.199549 1.001087e+00 -25.199549 2.009526e-02 -153.499118
5.538000e-01 2.024753e-02 -153.984126 1.001010e+00 -25.460497 1.001010e+00 -25.460497 2.024753e-02 -153.984126
5.596000e-01 2.039828e-02 -154.462317 1.000937e+00 -25.721261 1.000937e+00 -25.721261 2.039828e-02 -154.462317
5.654000e-01 2.054755e-02 -154.933403 1.000867e+00 -25.982026 1.000867e+00 -25.982026 2.054755e-02 -154.933403
5.712000e-01 2.069548e-02 -155.397499 1.000802e+00 -26.242710 1.000802e+00 -26.242710 2.069548e-02 -155.397499
5.770000e-01 2.084209e-02 -155.854432 1.000740e+00 -26.503320 1.000740e+00 -26.503320 2.084209e-02 -155.854432
5.828000e-01 2.098742e-02 -156.304147 1.000682e+00 -26.763884 1.000682e+00 -26.763884 2.098742e-02 -156.304147
5.886000e-01 2.113165e-02 -156.746700 1.000630e+00 -27.024454 1.000630e+00 -27.024454 2.113165e-02 -156.746700
5.944000e-01 2.127473e-02 -157.182033 1.000583e+00 -27.285001 1.000583e+00 -27.285001 2.127473e-02 -157.182033
6.002000e-01 2.141684e-02 -157.610147 1.000540e+00 -27.545536 1.000540e+00 -27.545536 2.141684e-02 -157.610147
6.060000e-01 2.155808e-02 -158.031214 1.000501e+00 -27.806135 1.000501e+00 -27.806135 2.155808e-02 -158.031214
6.118000e-01 2.169846e-02 -158.445118 1.000467e+00 -28.066721 1.000467e+00 -28.066721 2.169846e-02 -158.445118
6.176000e-01 2.183816e-02 -158.852090 1.000438e+00 -28.327400 1.000438e+00 -28.327400 2.183816e-02 -158.852090
6.234000e-01 2.197726e-02 -159.252129 1.000413e+00 -28.588147 1.000413e+00 -28.588147 2.197726e-02 -159.252129
6.292000e-01 2.211586e-02 -159.645408 1.000394e+00 -28.848935 1.000394e+00 -28.848935 2.211586e-02 -159.645408
6.350000e-01 2.225402e-02 -160.032097 1.000378e+00 -29.109871 1.000378e+00 -29.109871 2.225402e-02 -160.032097
6.408000e-01 2.239193e-02 -160.412369 1.000368e+00 -29.370905 1.000368e+00 -29.370905 2.239193e-02 -160.412369
6.466000e-01 2.252956e-02 -160.786224 1.000362e+00 -29.632099 1.000362e+00 -29.632099 2.252956e-02 -160.786224
6.524000e-01 2.266717e-02 -161.154120 1.000360e+00 -29.893443 1.000360e+00 -29.893443 2.266717e-02 -161.154120
6.582000e-01 2.280474e-02 -161.516058 1.000363e+00 -30.154918 1.000363e+00 -30.154918 2.280474e-02 -161.516058
6.640000e-01 2.294234e-02 -161.872265 1.000370e+00 -30.416605 1.000370e+00 -30.416605 2.294234e-02 -161.872265
6.698000e-01 2.308012e-02 -162.223030 1.000380e+00 -30.678481 1.000380e+00 -30.678481 2.308012e-02 -162.223030
6.756000e-01 2.321826e-02 -162.568696 1.000395e+00 -30.940529 1.000395e+00 -30.940529 2.321826e-02 -162.568696
6.814000e-01 2.335671e-02 -162.909376 1.000412e+00 -31.202766 1.000412e+00 -31.202766 2.335671e-02 -162.909376
6.872000e-01 2.349554e-02 -163.245302 1.000433e+00 -31.465289 1.000433e+00 -31.465289 2.349554e-02 -163.245302
6.930000e-01 2.363491e-02 -163.576815 1.000457e+00 -31.728013 1.000457e+00 -31.728013 2.363491e-02 -163.576815
6.988000e-01 2.377488e-02 -163.904318 1.000484e+00 -31.990972 1.000484e+00 -31.990972 2.377488e-02 -163.904318
7.046000e-01 2.391551e-02 -164.227867 1.000513e+00 -32.254172 1.000513e+00 -32.254172 2.391551e-02 -164.227867
7.104000e-01 2.405687e-02 -164.547921 1.000545e+00 -32.517693 1.000545e+00 -32.517693 2.405687e-02 -164.547921
7.162000e-01 2.419892e-02 -164.864652 1.000579e+00 -32.781414 1.000579e+00 -32.781414 2.419892e-02 -164.864652
7.220000e-01 2.434191e-02 -165.178518 1.000614e+00 -33.045450 1.000614e+00 -33.045450 2.434191e-02 -165.178518
7.278000e-01 2.448563e-02 -165.489635 1.000652e+00 -33.309692 1.000652e+00 -33.309692 2.448563e-02 -165.489635
7.336000e-01 2.463033e-02 -165.798459 1.000689e+00 -33.574238 1.000689e+00 -33.574238 2.463033e-02 -165.798459
7.394000e-01 2.477599e-02 -166.105163 1.000728e+00 -33.839031 1.000728e+00 -33.839031 2.477599e-02 -166.105163
7.452000e-01 2.492257e-02 -166.410091 1.000767e+00 -34.104144 1.000767e+00 -34.104144 2.492257e-02 -166.410091
7.510000e-01 2.507015e-02 -166.713530 1.000807e+00 -34.369492 1.000807e+00 -34.369492 2.507015e-02 -166.713530
7.568000e-01 2.521869e-02 -167.015822 1.000847e+00 -34.635144 1.000847e+00 -34.635144 2.521869e-02 -167.015822
7.626000e-01 2.536818e-02 -167.317083 1.000887e+00 -34.901025 1.000887e+00 -34.901025 2.536818e-02 -167.317083
7.684000e-01 2.551870e-02 -167.617772 1.000925e+00 -35.167187 1.000925e+00 -35.167187 2.551870e-02 -167.617772
7.742000e-01 2.567022e-02 -167.918059 1.000964e+00 -35.433612 1.000964e+00 -35.433612 2.567022e-02 -167.918059
7.800000e-01 2.582272e-02 -168.218231 1.001001e+00 -35.700250 1.001001e+00 -35.700250 2.582272e-02 -168.218231
7.858000e-01 2.597621e-02 -168.518519 1.001037e+00 -35.967139 1.001037e+00 -35.967139 2.597621e-02 -168.518519
7.916000e-01 2.613056e-02 -168.819150 1.001071e+00 -36.234252 1.001071e+00 -36.234252 2.613056e-02 -168.819150
7.974000e-01 2.628577e-02 -169.120353 1.001103e+00 -36.501583 1.001103e+00 -36.501583 2.628577e-02 -169.120353
8.032000e-01 2.644193e-02 -169.422360 1.001134e+00 -36.769148 1.001134e+00 -36.769148 2.644193e-02 -169.422360
8.090000e-01 2.659884e-02 -169.725397 1.001162e+00 -37.036903 1.001162e+00 -37.036903 2.659884e-02 -169.725397
8.148000e-01 2.675650e-02 -170.029580 1.001187e+00 -37.304824 1.001187e+00 -37.304824 2.675650e-02 -170.029580
8.206000e-01 2.691491e-02 -170.335139 1.001211e+00 -37.572991 1.001211e+00 -37.572991 2.691491e-02 -170.335139
8.264000e-01 2.707389e-02 -170.642244 1.001231e+00 -37.841238 1.001231e+00 -37.841238 2.707389e-02 -170.642244
8.322000e-01 2.723364e-02 -170.951068 1.001249e+00 -38.109635 1.001249e+00 -38.109635 2.723364e-02 -170.951068
8.380000e-01 2.739377e-02 -171.261726 1.001263e+00 -38.378209 1.001263e+00 -38.378209 2.739377e-02 -171.261726
8.438000e-01 2.755440e-02 -171.574332 1.001275e+00 -38.646897 1.001275e+00 -38.646897 2.755440e-02 -171.574332
8.496000e-01 2.771545e-02 -171.889000 1.001283e+00 -38.915666 1.001283e+00 -38.915666 2.771545e-02 -171.889000
8.554000e-01 2.787683e-02 -172.205903 1.001289e+00 -39.184521 1.001289e+00 -39.184521 2.787683e-02 -172.205903
8.612000e-01 2.803848e-02 -172.525041 1.001291e+00 -39.453427 1.001291e+00 -39.453427 2.803848e-02 -172.525041
8.670000e-01 2.820030e-02 -172.846584 1.001289e+00 -39.722436 1.001289e+00 -39.722436 2.820030e-02 -172.846584
8.728000e-01 2.836224e-02 -173.170535 1.001284e+00 -39.991474 1.001284e+00 -39.991474 2.836224e-02 -173.170535
8.786000e-01 2.852423e-02 -173.496949 1.001277e+00 -40.260512 1.001277e+00 -40.260512 2.852423e-02 -173.496949
8.844000e-01 2.868609e-02 -173.825941 1.001265e+00 -40.529556 1.001265e+00 -40.529556 2.868609e-02 -173.825941
8.902000e-01 2.884785e-02 -174.157455 1.001250e+00 -40.798617 1.001250e+00 -40.798617 2.884785e-02 -174.157455
8.960000e-01 2.900946e-02 -174.491546 1.001232e+00 -41.067701 1.001232e+00 -41.067701 2.900946e-02 -174.491546
9.018000e-01 2.917065e-02 -174.828274 1.001212e+00 -41.336699 1.001212e+00 -41.336699 2.917065e-02 -174.828274
9.076000e-01 2.933156e-02 -175.167579 1.001188e+00 -41.605657 1.001188e+00 -41.605657 2.933156e-02 -175.167579
9.134000e-01 2.949203e-02 -175.509520 1.001161e+00 -41.874540 1.001161e+00 -41.874540 2.949203e-02 -175.509520
9.192000e-01 2.965200e-02 -175.854040 1.001131e+00 -42.143361 1.001131e+00 -42.143361 2.965200e-02 -175.854040
9.250000e-01 2.981130e-02 -176.201138 1.001099e+00 -42.412129 1.001099e+00 -42.412129 2.981130e-02 -176.201138
9.308000e-01 2.996999e-02 -176.550757 1.001065e+00 -42.680778 1.001065e+00 -42.680778 2.996999e-02 -176.550757
9.366000e-01 3.012791e-02 -176.902896 1.001028e+00 -42.949340 1.001028e+00 -42.949340 3.012791e-02 -176.902896
9.424000e-01 3.028509e-02 -177.257500 1.000989e+00 -43.217754 1.000989e+00 -43.217754 3.028509e-02 -177.257500
9.482000e-01 3.044138e-02 -177.614510 1.000949e+00 -43.486070 1.000949e+00 -43.486070 3.044138e-02 -177.614510
9.540000e-01 3.059673e-02 -177.973926 1.000906e+00 -43.754243 1.000906e+00 -43.754243 3.059673e-02 -177.973926
9.598000e-01 3.075107e-02 -178.335635 1.000862e+00 -44.022295 1.000862e+00 -44.022295 3.075107e-02 -178.335635
9.656000e-01 3.090446e-02 -178.699635 1.000815e+00 -44.290182 1.000815e+00 -44.290182 3.090446e-02 -178.699635
9.714000e-01 3.105673e-02 -179.065869 1.000769e+00 -44.557959 1.000769e+00 -44.557959 3.105673e-02 -179.065869
9.772000e-01 3.120782e-02 -179.434167 1.000722e+00 -44.825508 1.000722e+00 -44.825508 3.120782e-02 -179.434167
9.830000e-01 3.135768e-02 -179.804584 1.000673e+00 -45.092959 1.000673e+00 -45.092959 3.135768e-02 -179.804584
9.888000e-01 3.150635e-02 179.823033 1.000625e+00 -45.360232 1.000625e+00 -45.360232 3.150635e-02 179.823033
9.946000e-01 3.165377e-02 179.448720 1.000576e+00 -45.627379 1.000576e+00 -45.627379 3.165377e-02 179.448720
1.000400e+00 3.179977e-02 179.072573 1.000527e+00 -45.894320 1.000527e+00 -45.894320 3.179977e-02 179.072573
1.006200e+00 3.194459e-02 178.694593 1.000479e+00 -46.161147 1.000479e+00 -46.161147 3.194459e-02 178.694593
1.012000e+00 3.208788e-02 178.314951 1.000430e+00 -46.427784 1.000430e+00 -46.427784 3.208788e-02 178.314951
1.017800e+00 3.222986e-02 177.933648 1.000383e+00 -46.694267 1.000383e+00 -46.694267 3.222986e-02 177.933648
1.023600e+00 3.237037e-02 177.550740 1.000336e+00 -46.960612 1.000336e+00 -46.960612 3.237037e-02 177.550740
1.029400e+00 3.250945e-02 177.166400 1.000290e+00 -47.226820 1.000290e+00 -47.226820 3.250945e-02 177.166400
1.035200e+00 3.264712e-02 176.780570 1.000245e+00 -47.492856 1.000245e+00 -47.492856 3.264712e-02 176.780570
1.041000e+00 3.278333e-02 176.393422 1.000203e+00 -47.758754 1.000203e+00 -47.758754 3.278333e-02 176.393422
1.046800e+00 3.291799e-02 176.004957 1.000161e+00 -48.024537 1.000161e+00 -48.024537 3.291799e-02 176.004957
1.052600e+00 3.305114e-02 175.615231 1.000121e+00 -48.290235 1.000121e+00 -48.290235 3.305114e-02 175.615231
1.058400e+00 3.318290e-02 175.224359 1.000084e+00 -48.555772 1.000084e+00 -48.555772 3.318290e-02 175.224359
1.064200e+00 3.331310e-02 174.832399 1.000047e+00 -48.821201 1.000047e+00 -48.821201 3.331310e-02 174.832399
1.070000e+00 3.344187e-02 174.439350 1.000013e+00 -49.086555 1.000013e+00 -49.086555 3.344187e-02 174.439350
1.075800e+00 3.356913e-02 174.045269 9.999814e-01 -49.351846 9.999814e-01 -49.351846 3.356913e-02 174.045269
1.081600e+00 3.369491e-02 173.650272 9.999521e-01 -49.616993 9.999521e-01 -49.616993 3.369491e-02 173.650272
1.087400e+00 3.381922e-02 173.254359 9.999250e-01 -49.882118 9.999250e-01 -49.882118 3.381922e-02 173.254359
1.093200e+00 3.394209e-02 172.857528 9.999000e-01 -50.147151 9.999000e-01 -50.147151 3.394209e-02 172.857528
1.099000e+00 3.406354e-02 172.459895 9.998779e-01 -50.412207 9.998779e-01 -50.412207 3.406354e-02 172.459895
1.104800e+00 3.418349e-02 172.061460 9.998579e-01 -50.677183 9.998579e-01 -50.677183 3.418349e-02 172.061460
1.110600e+00 3.430215e-02 171.662281 9.998407e-01 -50.942107 9.998407e-01 -50.942107 3.430215e-02 171.662281
1.116400e+00 3.441936e-02 171.262356 9.998271e-01 -51.207020 9.998271e-01 -51.207020 3.441936e-02 171.262356
1.122200e+00 3.453522e-02 170.861687 9.998143e-01 -51.471950 9.998143e-01 -51.471950 3.453522e-02 170.861687
1.128000e+00 3.464976e-02 170.460387 9.998050e-01 -51.736880 9.998050e-01 -51.736880 3.464976e-02 170.460387
1.133800e+00 3.476290e-02 170.058343 9.997978e-01 -52.001821 9.997978e-01 -52.001821 3.476290e-02 170.058343
1.139600e+00 3.487484e-02 169.655668 9.997929e-01 -52.266774 9.997929e-01 -52.266774 3.487484e-02 169.655668
1.145400e+00 3.498552e-02 169.252306 9.997907e-01 -52.531704 9.997907e-01 -52.531704 3.498552e-02 169.252306
1.151200e+00 3.509484e-02 168.848313 9.997903e-01 -52.796789 9.997903e-01 -52.796789 3.509484e-02 168.848313
1.157000e+00 3.520302e-02 168.443690 9.997927e-01 -53.061851 9.997927e-01 -53.061851 3.520302e-02 168.443690
1.162800e+00 3.530999e-02 168.038437 9.997967e-01 -53.326987 9.997967e-01 -53.326987 3.530999e-02 168.038437
1.168600e+00 3.541586e-02 167.632497 9.998029e-01 -53.592163 9.998029e-01 -53.592163 3.541586e-02 167.632497
1.174400e+00 3.552055e-02 167.225983 9.998116e-01 -53.857460 9.998116e-01 -53.857460 3.552055e-02 167.225983
1.180200e+00 3.562407e-02 166.818725 9.998211e-01 -54.122808 9.998211e-01 -54.122808 3.562407e-02 166.818725
1.186000e+00 3.572655e-02 166.410779 9.998322e-01 -54.388254 9.998322e-01 -54.388254 3.572655e-02 166.410779
1.191800e+00 3.582791e-02 166.002203 9.998457e-01 -54.653751 9.998457e-01 -54.653751 3.582791e-02 166.002203
1.197600e+00 3.592826e-02 165.592881 9.998603e-01 -54.919397 9.998603e-01 -54.919397 3.592826e-02 165.592881
1.203400e+00 3.602763e-02 165.182873 9.998759e-01 -55.185118 9.998759e-01 -55.185118 3.602763e-02 165.182873
1.209200e+00 3.612594e-02 164.772062 9.998924e-01 -55.450918 9.998924e-01 -55.450918 3.612594e-02 164.772062
1.215000e+00 3.622330e-02 164.360507 9.999093e-01 -55.716845 9.999093e-01 -55.716845 3.622330e-02 164.360507
1.220800e+00 3.631965e-02 163.948034 9.999277e-01 -55.982824 9.999277e-01 -55.982824 3.631965e-02 163.948034
1.226600e+00 3.641519e-02 163.534932 9.999461e-01 -56.248986 9.999461e-01 -56.248986 3.641519e-02 163.534932
1.232400e+00 3.650965e-02 163.120912 9.999661e-01 -56.515205 9.999661e-01 -56.515205 3.650965e-02 163.120912
1.238200e+00 3.660338e-02 162.705919 9.999853e-01 -56.781590 9.999853e-01 -56.781590 3.660338e-02 162.705919
1.244000e+00 3.669605e-02 162.290181 1.000005e+00 -57.048004 1.000005e+00 -57.048004 3.669605e-02 162.290181
1.249800e+00 3.678804e-02 161.873411 1.000024e+00 -57.314515 1.000024e+00 -57.314515 3.678804e-02 161.873411
1.255600e+00 3.687906e-02 161.455611 1.000044e+00 -57.581227 1.000044e+00 -57.581227 3.687906e-02 161.455611
1.261400e+00 3.696929e-02 161.036893 1.000063e+00 -57.847939 1.000063e+00 -57.847939 3.696929e-02 161.036893
1.267200e+00 3.705862e-02 160.617087 1.000081e+00 -58.114765 1.000081e+00 -58.114765 3.705862e-02 160.617087
1.273000e+00 3.714712e-02 160.196307 1.000099e+00 -58.381706 1.000099e+00 -58.381706 3.714712e-02 160.196307
1.278800e+00 3.723487e-02 159.774323 1.000116e+00 -58.648705 1.000116e+00 -58.648705 3.723487e-02 159.774323
1.284600e+00 3.732186e-02 159.351251 1.000132e+00 -58.915818 1.000132e+00 -58.915818 3.732186e-02 159.351251
1.290400e+00 3.740793e-02 158.926976 1.000148e+00 -59.182988 1.000148e+00 -59.182988 3.740793e-02 158.926976
1.296200e+00 3.749330e-02 158.501555 1.000163e+00 -59.450215 1.000163e+00 -59.450215 3.749330e-02 158.501555
1.302000e+00 3.757782e-02 158.074816 1.000176e+00 -59.717558 1.000176e+00 -59.717558 3.757782e-02 158.074816
1.307800e+00 3.766158e-02 157.646931 1.000188e+00 -59.984842 1.000188e+00 -59.984842 3.766158e-02 157.646931
1.313600e+00 3.774454e-02 157.217614 1.000199e+00 -60.252242 1.000199e+00 -60.252242 3.774454e-02 157.217614
1.319400e+00 3.782681e-02 156.787093 1.000209e+00 -60.519698 1.000209e+00 -60.519698 3.782681e-02 156.787093
1.325200e+00 3.790819e-02 156.355312 1.000217e+00 -60.787155 1.000217e+00 -60.787155 3.790819e-02 156.355312
1.331000e+00 3.798875e-02 155.922099 1.000224e+00 -61.054669 1.000224e+00 -61.054669 3.798875e-02 155.922099
1.336800e+00 3.806852e-02 155.487338 1.000229e+00 -61.322183 1.000229e+00 -61.322183 3.806852e-02 155.487338
1.342600e+00 3.814756e-02 155.051432 1.000233e+00 -61.589697 1.000233e+00 -61.589697 3.814756e-02 155.051432
1.348400e+00 3.822580e-02 154.613922 1.000235e+00 -61.857211 1.000235e+00 -61.857211 3.822580e-02 154.613922
1.354200e+00 3.830319e-02 154.174979 1.000236e+00 -62.124782 1.000236e+00 -62.124782 3.830319e-02 154.174979
1.360000e+00 3.837973e-02 153.734718 1.000235e+00 -62.392296 1.000235e+00 -62.392296 3.837973e-02 153.734718
1.365800e+00 3.845552e-02 153.292795 1.000234e+00 -62.659810 1.000234e+00 -62.659810 3.845552e-02 153.292795
1.371600e+00 3.853045e-02 152.849441 1.000230e+00 -62.927267 1.000230e+00 -62.927267 3.853045e-02 152.849441
1.377400e+00 3.860453e-02 152.404539 1.000225e+00 -63.194666 1.000225e+00 -63.194666 3.860453e-02 152.404539
1.383200e+00 3.867777e-02 151.958262 1.000219e+00 -63.462066 1.000219e+00 -63.462066 3.867777e-02 151.958262
1.389000e+00 3.875025e-02 151.510266 1.000212e+00 -63.729408 1.000212e+00 -63.729408 3.875025e-02 151.510266
1.394800e+00 3.882181e-02 151.060896 1.000204e+00 -63.996693 1.000204e+00 -63.996693 3.882181e-02 151.060896
1.400600e+00 3.889251e-02 150.609921 1.000195e+00 -64.263920 1.000195e+00 -64.263920 3.889251e-02 150.609921
1.406400e+00 3.896228e-02 150.157341 1.000184e+00 -64.531091 1.000184e+00 -64.531091 3.896228e-02 150.157341
1.412200e+00 3.903126e-02 149.703158 1.000174e+00 -64.798261 1.000174e+00 -64.798261 3.903126e-02 149.703158
1.418000e+00 3.909934e-02 149.247656 1.000162e+00 -65.065259 1.000162e+00 -65.065259 3.909934e-02 149.247656
1.423800e+00 3.916647e-02 148.790378 1.000148e+00 -65.332200 1.000148e+00 -65.332200 3.916647e-02 148.790378
1.429600e+00 3.923282e-02 148.331611 1.000135e+00 -65.599084 1.000135e+00 -65.599084 3.923282e-02 148.331611
1.435400e+00 3.929816e-02 147.871411 1.000121e+00 -65.865853 1.000121e+00 -65.865853 3.929816e-02 147.871411
1.441200e+00 3.936256e-02 147.409493 1.000107e+00 -66.132565 1.000107e+00 -66.132565 3.936256e-02 147.409493
1.447000e+00 3.942619e-02 146.946142 1.000093e+00 -66.399219 1.000093e+00 -66.399219 3.942619e-02 146.946142
1.452800e+00 3.948878e-02 146.481244 1.000079e+00 -66.665702 1.000079e+00 -66.665702 3.948878e-02 146.481244
1.458600e+00 3.955045e-02 146.014742 1.000063e+00 -66.932185 1.000063e+00 -66.932185 3.955045e-02 146.014742
1.464400e+00 3.961127e-02 145.546807 1.000049e+00 -67.198553 1.000049e+00 -67.198553 3.961127e-02 145.546807
1.470200e+00 3.967113e-02 145.077383 1.000035e+00 -67.464806 1.000035e+00 -67.464806 3.967113e-02 145.077383
1.476000e+00 3.972999e-02 144.606411 1.000022e+00 -67.731003 1.000022e+00 -67.731003 3.972999e-02 144.606411
1.481800e+00 3.978799e-02 144.134065 1.000008e+00 -67.997141 1.000008e+00 -67.997141 3.978799e-02 144.134065
1.487600e+00 3.984500e-02 143.660172 9.999953e-01 -68.263108 9.999953e-01 -68.263108 3.984500e-02 143.660172
1.493400e+00 3.990110e-02 143.184731 9.999825e-01 -68.529075 9.999825e-01 -68.529075 3.990110e-02 143.184731
1.499200e+00 3.995624e-02 142.707973 9.999710e-01 -68.794985 9.999710e-01 -68.794985 3.995624e-02 142.707973
1.505000e+00 4.001054e-02 142.229611 9.999606e-01 -69.060723 9.999606e-01 -69.060723 4.001054e-02 142.229611
1.510800e+00 4.006392e-02 141.750045 9.999505e-01 -69.326461 9.999505e-01 -69.326461 4.006392e-02 141.750045
1.516600e+00 4.011626e-02 141.269047 9.999424e-01 -69.592084 9.999424e-01 -69.592084 4.011626e-02 141.269047
1.522400e+00 4.016774e-02 140.786559 9.999346e-01 -69.857707 9.999346e-01 -69.857707 4.016774e-02 140.786559
1.528200e+00 4.021834e-02 140.302754 9.999283e-01 -70.123273 9.999283e-01 -70.123273 4.021834e-02 140.302754
1.534000e+00 4.026802e-02 139.817516 9.999227e-01 -70.388782 9.999227e-01 -70.388782 4.026802e-02 139.817516
1.539800e+00 4.031684e-02 139.331017 9.999187e-01 -70.654233 9.999187e-01 -70.654233 4.031684e-02 139.331017
1.545600e+00 4.036467e-02 138.843144 9.999162e-01 -70.919685 9.999162e-01 -70.919685 4.036467e-02 138.843144
1.551400e+00 4.041164e-02 138.354010 9.999155e-01 -71.185021 9.999155e-01 -71.185021 4.041164e-02 138.354010
1.557200e+00 4.045785e-02 137.863558 9.999151e-01 -71.450358 9.999151e-01 -71.450358 4.045785e-02 137.863558
1.563000e+00 4.050312e-02 137.371731 9.999172e-01 -71.715695 9.999172e-01 -71.715695 4.050312e-02 137.371731
1.568800e+00 4.054757e-02 136.878701 9.999199e-01 -71.981032 9.999199e-01 -71.981032 4.054757e-02 136.878701
1.574600e+00 4.059122e-02 136.384410 9.999247e-01 -72.246426 9.999247e-01 -72.246426 4.059122e-02 136.384410
1.580400e+00 4.063397e-02 135.888801 9.999304e-01 -72.511705 9.999304e-01 -72.511705 4.063397e-02 135.888801
1.586200e+00 4.067600e-02 135.392047 9.999376e-01 -72.776985 9.999376e-01 -72.776985 4.067600e-02 135.392047
1.592000e+00 4.071719e-02 134.894032 9.999460e-01 -73.042379 9.999460e-01 -73.042379 4.071719e-02 134.894032
1.597800e+00 4.075758e-02 134.394699 9.999560e-01 -73.307715 9.999560e-01 -73.307715 4.075758e-02 134.394699
1.603600e+00 4.079733e-02 133.894278 9.999675e-01 -73.573052 9.999675e-01 -73.573052 4.079733e-02 133.894278
1.609400e+00 4.083621e-02 133.392539 9.999805e-01 -73.838446 9.999805e-01 -73.838446 4.083621e-02 133.392539
1.615200e+00 4.087445e-02 132.889654 9.999938e-01 -74.103898 9.999938e-01 -74.103898 4.087445e-02 132.889654
1.621000e+00 4.091194e-02 132.385737 1.000010e+00 -74.369406 1.000010e+00 -74.369406 4.091194e-02 132.385737
1.626800e+00 4.094870e-02 131.880503 1.000025e+00 -74.634857 1.000025e+00 -74.634857 4.094870e-02 131.880503
1.632600e+00 4.098492e-02 131.374066 1.000043e+00 -74.900481 1.000043e+00 -74.900481 4.098492e-02 131.374066
1.638400e+00 4.102039e-02 130.866540 1.000061e+00 -75.166047 1.000061e+00 -75.166047 4.102039e-02 130.866540
1.644200e+00 4.105523e-02 130.357868 1.000080e+00 -75.431727 1.000080e+00 -75.431727 4.105523e-02 130.357868
1.650000e+00 4.108953e-02 129.847935 1.000099e+00 -75.697408 1.000099e+00 -75.697408 4.108953e-02 129.847935
1.655800e+00 4.112317e-02 129.336857 1.000120e+00 -75.963203 1.000120e+00 -75.963203 4.112317e-02 129.336857
1.661600e+00 4.115619e-02 128.824633 1.000141e+00 -76.229055 1.000141e+00 -76.229055 4.115619e-02 128.824633
1.667400e+00 4.118873e-02 128.311320 1.000163e+00 -76.495022 1.000163e+00 -76.495022 4.118873e-02 128.311320
1.673200e+00 4.122071e-02 127.796747 1.000185e+00 -76.760989 1.000185e+00 -76.760989 4.122071e-02 127.796747
1.679000e+00 4.125220e-02 127.281027 1.000207e+00 -77.027014 1.000207e+00 -77.027014 4.125220e-02 127.281027
1.684800e+00 4.128309e-02 126.764219 1.000229e+00 -77.293152 1.000229e+00 -77.293152 4.128309e-02 126.764219
1.690600e+00 4.131363e-02 126.246151 1.000252e+00 -77.559349 1.000252e+00 -77.559349 4.131363e-02 126.246151
1.696400e+00 4.134361e-02 125.726994 1.000275e+00 -77.825602 1.000275e+00 -77.825602 4.134361e-02 125.726994
1.702200e+00 4.137319e-02 125.206691 1.000297e+00 -78.091970 1.000297e+00 -78.091970 4.137319e-02 125.206691
1.708000e+00 4.140235e-02 124.685185 1.000320e+00 -78.358338 1.000320e+00 -78.358338 4.140235e-02 124.685185
1.713800e+00 4.143111e-02 124.162475 1.000341e+00 -78.624764 1.000341e+00 -78.624764 4.143111e-02 124.162475
1.719600e+00 4.145942e-02 123.638505 1.000363e+00 -78.891304 1.000363e+00 -78.891304 4.145942e-02 123.638505
1.725400e+00 4.148749e-02 123.113504 1.000384e+00 -79.157901 1.000384e+00 -79.157901 4.148749e-02 123.113504
1.731200e+00 4.151510e-02 122.587185 1.000405e+00 -79.424498 1.000405e+00 -79.424498 4.151510e-02 122.587185
1.737000e+00 4.154240e-02 122.059663 1.000425e+00 -79.691210 1.000425e+00 -79.691210 4.154240e-02 122.059663
1.742800e+00 4.156940e-02 121.530937 1.000445e+00 -79.957979 1.000445e+00 -79.957979 4.156940e-02 121.530937
1.748600e+00 4.159606e-02 121.001009 1.000462e+00 -80.224806 1.000462e+00 -80.224806 4.159606e-02 121.001009
1.754400e+00 4.162255e-02 120.469877 1.000480e+00 -80.491632 1.000480e+00 -80.491632 4.162255e-02 120.469877
1.760200e+00 4.164868e-02 119.937542 1.000497e+00 -80.758573 1.000497e+00 -80.758573 4.164868e-02 119.937542
1.766000e+00 4.167461e-02 119.403889 1.000512e+00 -81.025514 1.000512e+00 -81.025514 4.167461e-02 119.403889
1.771800e+00 4.170024e-02 118.868918 1.000527e+00 -81.292455 1.000527e+00 -81.292455 4.170024e-02 118.868918
1.777600e+00 4.172570e-02 118.332802 1.000541e+00 -81.559454 1.000541e+00 -81.559454 4.172570e-02 118.332802
1.783400e+00 4.175084e-02 117.795310 1.000554e+00 -81.826452 1.000554e+00 -81.826452 4.175084e-02 117.795310
1.789200e+00 4.177592e-02 117.256615 1.000566e+00 -82.093507 1.000566e+00 -82.093507 4.177592e-02 117.256615
1.795000e+00 4.180071e-02 116.716659 1.000576e+00 -82.360506 1.000576e+00 -82.360506 4.180071e-02 116.716659
1.800800e+00 4.182541e-02 116.175157 1.000585e+00 -82.627561 1.000585e+00 -82.627561 4.182541e-02 116.175157
1.806600e+00 4.184989e-02 115.632566 1.000593e+00 -82.894560 1.000593e+00 -82.894560 4.184989e-02 115.632566
1.812400e+00 4.187421e-02 115.088657 1.000599e+00 -83.161673 1.000599e+00 -83.161673 4.187421e-02 115.088657
1.818200e+00 4.189851e-02 114.543259 1.000606e+00 -83.428671 1.000606e+00 -83.428671 4.189851e-02 114.543259
1.824000e+00 4.192259e-02 113.996600 1.000610e+00 -83.695669 1.000610e+00 -83.695669 4.192259e-02 113.996600
1.829800e+00 4.194654e-02 113.448566 1.000614e+00 -83.962668 1.000614e+00 -83.962668 4.194654e-02 113.448566
1.835600e+00 4.197047e-02 112.899214 1.000616e+00 -84.229666 1.000616e+00 -84.229666 4.197047e-02 112.899214
1.841400e+00 4.199415e-02 112.348487 1.000617e+00 -84.496607 1.000617e+00 -84.496607 4.199415e-02 112.348487
1.847200e+00 4.201788e-02 111.796327 1.000618e+00 -84.763548 1.000618e+00 -84.763548 4.201788e-02 111.796327
1.853000e+00 4.204147e-02 111.242793 1.000617e+00 -85.030432 1.000617e+00 -85.030432 4.204147e-02 111.242793
1.858800e+00 4.206500e-02 110.687883 1.000617e+00 -85.297258 1.000617e+00 -85.297258 4.206500e-02 110.687883
1.864600e+00 4.208851e-02 110.131598 1.000614e+00 -85.564085 1.000614e+00 -85.564085 4.208851e-02 110.131598
1.870400e+00 4.211187e-02 109.573996 1.000611e+00 -85.830797 1.000611e+00 -85.830797 4.211187e-02 109.573996
1.876200e+00 4.213524e-02 109.014846 1.000607e+00 -86.097508 1.000607e+00 -86.097508 4.213524e-02 109.014846
1.882000e+00 4.215854e-02 108.454264 1.000603e+00 -86.364163 1.000603e+00 -86.364163 4.215854e-02 108.454264
1.887800e+00 4.218190e-02 107.892307 1.000599e+00 -86.630760 1.000599e+00 -86.630760 4.218190e-02 107.892307
1.893600e+00 4.220517e-02 107.328918 1.000593e+00 -86.897300 1.000593e+00 -86.897300 4.220517e-02 107.328918
1.899400e+00 4.222838e-02 106.764096 1.000588e+00 -87.163783 1.000588e+00 -87.163783 4.222838e-02 106.764096
1.905200e+00 4.225161e-02 106.197842 1.000581e+00 -87.430151 1.000581e+00 -87.430151 4.225161e-02 106.197842
1.911000e+00 4.227480e-02 105.630213 1.000575e+00 -87.696519 1.000575e+00 -87.696519 4.227480e-02 105.630213
1.916800e+00 4.229797e-02 105.061151 1.000568e+00 -87.962830 1.000568e+00 -87.962830 4.229797e-02 105.061151
1.922600e+00 4.232118e-02 104.490542 1.000558e+00 -88.229026 1.000558e+00 -88.229026 4.232118e-02 104.490542
1.928400e+00 4.234438e-02 103.918501 1.000555e+00 -88.495222 1.000555e+00 -88.495222 4.234438e-02 103.918501
1.934200e+00 4.236764e-02 103.345142 1.000554e+00 -88.761304 1.000554e+00 -88.761304 4.236764e-02 103.345142
1.940000e+00 4.239087e-02 102.770237 1.000544e+00 -89.027385 1.000544e+00 -89.027385 4.239087e-02 102.770237
1.945800e+00 4.241404e-02 102.193956 1.000536e+00 -89.293352 1.000536e+00 -89.293352 4.241404e-02 102.193956
1.951600e+00 4.243739e-02 101.616242 1.000530e+00 -89.559262 1.000530e+00 -89.559262 4.243739e-02 101.616242
1.957400e+00 4.246067e-02 101.037039 1.000525e+00 -89.825115 1.000525e+00 -89.825115 4.246067e-02 101.037039
1.963200e+00 4.248403e-02 100.456461 1.000521e+00 -90.090967 1.000521e+00 -90.090967 4.248403e-02 100.456461
1.969000e+00 4.250741e-02 99.874451 1.000519e+00 -90.356705 1.000519e+00 -90.356705 4.250741e-02 99.874451
1.974800e+00 4.253076e-02 99.291065 1.000509e+00 -90.622443 1.000509e+00 -90.622443 4.253076e-02 99.291065
1.980600e+00 4.255423e-02 98.706190 1.000510e+00 -90.888123 1.000510e+00 -90.888123 4.255423e-02 98.706190
1.986400e+00 4.257776e-02 98.119939 1.000513e+00 -91.153746 1.000513e+00 -91.153746 4.257776e-02 98.119939
1.992200e+00 4.260140e-02 97.532256 1.000507e+00 -91.419370 1.000507e+00 -91.419370 4.260140e-02 97.532256
1.998000e+00 4.262499e-02 96.943256 1.000503e+00 -91.684936 1.000503e+00 -91.684936 4.262499e-02 96.943256
2.003800e+00 4.264879e-02 96.352765 1.000507e+00 -91.950444 1.000507e+00 -91.950444 4.264879e-02 96.352765
2.009600e+00 4.267262e-02 95.760957 1.000507e+00 -92.215953 1.000507e+00 -92.215953 4.267262e-02 95.760957
2.015400e+00 4.269645e-02 95.167774 1.000509e+00 -92.481404 1.000509e+00 -92.481404 4.269645e-02 95.167774
2.021200e+00 4.272051e-02 94.573216 1.000513e+00 -92.746913 1.000513e+00 -92.746913 4.272051e-02 94.573216
2.027000e+00 4.274455e-02 93.977340 1.000516e+00 -93.012364 1.000516e+00 -93.012364 4.274455e-02 93.977340
2.032800e+00 4.276870e-02 93.380088 1.000521e+00 -93.277816 1.000521e+00 -93.277816 4.276870e-02 93.380088
2.038600e+00 4.279302e-02 92.781462 1.000528e+00 -93.543267 1.000528e+00 -93.543267 4.279302e-02 92.781462
2.044400e+00 4.281743e-02 92.181575 1.000534e+00 -93.808718 1.000534e+00 -93.808718 4.281743e-02 92.181575
2.050200e+00 4.284200e-02 91.580371 1.000541e+00 -94.074112 1.000541e+00 -94.074112 4.284200e-02 91.580371
2.056000e+00 4.286664e-02 90.977848 1.000550e+00 -94.339621 1.000550e+00 -94.339621 4.286664e-02 90.977848
2.061800e+00 4.289151e-02 90.374065 1.000560e+00 -94.605072 1.000560e+00 -94.605072 4.289151e-02 90.374065
2.067600e+00 4.291645e-02 89.769022 1.000570e+00 -94.870581 1.000570e+00 -94.870581 4.291645e-02 89.769022
2.073400e+00 4.294159e-02 89.162661 1.000581e+00 -95.136090 1.000581e+00 -95.136090 4.294159e-02 89.162661
2.079200e+00 4.296696e-02 88.555096 1.000594e+00 -95.401598 1.000594e+00 -95.401598 4.296696e-02 88.555096
2.085000e+00 4.299242e-02 87.946271 1.000607e+00 -95.667221 1.000607e+00 -95.667221 4.299242e-02 87.946271
2.090800e+00 4.301808e-02 87.336243 1.000621e+00 -95.932787 1.000621e+00 -95.932787 4.301808e-02 87.336243
2.096600e+00 4.304390e-02 86.725012 1.000635e+00 -96.198468 1.000635e+00 -96.198468 4.304390e-02 86.725012
2.102400e+00 4.307000e-02 86.112577 1.000650e+00 -96.464091 1.000650e+00 -96.464091 4.307000e-02 86.112577
2.108200e+00 4.309631e-02 85.498997 1.000666e+00 -96.729829 1.000666e+00 -96.729829 4.309631e-02 85.498997
2.114000e+00 4.312278e-02 84.884156 1.000682e+00 -96.995567 1.000682e+00 -96.995567 4.312278e-02 84.884156
2.119800e+00 4.314953e-02 84.268226 1.000698e+00 -97.261419 1.000698e+00 -97.261419 4.314953e-02 84.268226
2.125600e+00 4.317660e-02 83.651208 1.000715e+00 -97.527272 1.000715e+00 -97.527272 4.317660e-02 83.651208
2.131400e+00 4.320381e-02 83.032986 1.000732e+00 -97.793181 1.000732e+00 -97.793181 4.320381e-02 83.032986
2.137200e+00 4.323130e-02 82.413676 1.000749e+00 -98.059148 1.000749e+00 -98.059148 4.323130e-02 82.413676
2.143000e+00 4.325920e-02 81.793278 1.000767e+00 -98.325173 1.000767e+00 -98.325173 4.325920e-02 81.793278
2.148800e+00 4.328732e-02 81.171790 1.000785e+00 -98.591197 1.000785e+00 -98.591197 4.328732e-02 81.171790
2.154600e+00 4.331572e-02 80.549272 1.000802e+00 -98.857336 1.000802e+00 -98.857336 4.331572e-02 80.549272
2.160400e+00 4.334450e-02 79.925664 1.000820e+00 -99.123475 1.000820e+00 -99.123475 4.334450e-02 79.925664
2.166200e+00 4.337360e-02 79.301083 1.000837e+00 -99.389728 1.000837e+00 -99.389728 4.337360e-02 79.301083
2.172000e+00 4.340304e-02 78.675413 1.000855e+00 -99.656039 1.000855e+00 -99.656039 4.340304e-02 78.675413
2.177800e+00 4.343284e-02 78.048769 1.000872e+00 -99.922350 1.000872e+00 -99.922350 4.343284e-02 78.048769
2.183600e+00 4.346294e-02 77.421094 1.000889e+00 -100.188718 1.000889e+00 -100.188718 4.346294e-02 77.421094
2.189400e+00 4.349355e-02 76.792502 1.000905e+00 -100.455143 1.000905e+00 -100.455143 4.349355e-02 76.792502
2.195200e+00 4.352449e-02 76.162936 1.000920e+00 -100.721626 1.000920e+00 -100.721626 4.352449e-02 76.162936
2.201000e+00 4.355590e-02 75.532396 1.000935e+00 -100.988109 1.000935e+00 -100.988109 4.355590e-02 75.532396
2.206800e+00 4.358768e-02 74.900939 1.000950e+00 -101.254706 1.000950e+00 -101.254706 4.358768e-02 74.900939
2.212600e+00 4.361996e-02 74.268566 1.000964e+00 -101.521303 1.000964e+00 -101.521303 4.361996e-02 74.268566
2.218400e+00 4.365268e-02 73.635218 1.000978e+00 -101.787958 1.000978e+00 -101.787958 4.365268e-02 73.635218
2.224200e+00 4.368585e-02 73.000954 1.000991e+00 -102.054555 1.000991e+00 -102.054555 4.368585e-02 73.000954
2.230000e+00 4.371953e-02 72.366002 1.001003e+00 -102.321267 1.001003e+00 -102.321267 4.371953e-02 72.366002
2.235800e+00 4.375374e-02 71.729961 1.001013e+00 -102.588036 1.001013e+00 -102.588036 4.375374e-02 71.729961
2.241600e+00 4.378840e-02 71.093233 1.001023e+00 -102.854748 1.001023e+00 -102.854748 4.378840e-02 71.093233
2.247400e+00 4.382369e-02 70.455703 1.001033e+00 -103.121460 1.001033e+00 -103.121460 4.382369e-02 70.455703
2.253200e+00 4.385954e-02 69.817142 1.001042e+00 -103.388286 1.001042e+00 -103.388286 4.385954e-02 69.817142
2.259000e+00 4.389582e-02 69.177836 1.001049e+00 -103.655055 1.001049e+00 -103.655055 4.389582e-02 69.177836
2.264800e+00 4.393272e-02 68.537842 1.001056e+00 -103.921882 1.001056e+00 -103.921882 4.393272e-02 68.537842
2.270600e+00 4.397035e-02 67.896931 1.001062e+00 -104.188651 1.001062e+00 -104.188651 4.397035e-02 67.896931
2.276400e+00 4.400844e-02 67.255276 1.001067e+00 -104.455477 1.001067e+00 -104.455477 4.400844e-02 67.255276
2.282200e+00 4.404717e-02 66.612818 1.001071e+00 -104.722246 1.001071e+00 -104.722246 4.404717e-02 66.612818
2.288000e+00 4.408656e-02 65.969730 1.001074e+00 -104.989016 1.001074e+00 -104.989016 4.408656e-02 65.969730
2.293800e+00 4.412662e-02 65.325840 1.001076e+00 -105.255842 1.001076e+00 -105.255842 4.412662e-02 65.325840
2.299600e+00 4.416733e-02 64.681148 1.001077e+00 -105.522611 1.001077e+00 -105.522611 4.416733e-02 64.681148
2.305400e+00 4.420869e-02 64.035769 1.001078e+00 -105.789323 1.001078e+00 -105.789323 4.420869e-02 64.035769
2.311200e+00 4.425082e-02 63.389701 1.001079e+00 -106.056035 1.001079e+00 -106.056035 4.425082e-02 63.389701
2.317000e+00 4.429366e-02 62.742889 1.001077e+00 -106.322689 1.001077e+00 -106.322689 4.429366e-02 62.742889
2.322800e+00 4.433716e-02 62.095447 1.001075e+00 -106.589401 1.001075e+00 -106.589401 4.433716e-02 62.095447
2.328600e+00 4.438135e-02 61.447317 1.001074e+00 -106.855999 1.001074e+00 -106.855999 4.438135e-02 61.447317
2.334400e+00 4.442640e-02 60.798442 1.001071e+00 -107.122653 1.001071e+00 -107.122653 4.442640e-02 60.798442
2.340200e+00 4.447217e-02 60.148937 1.001067e+00 -107.389193 1.001067e+00 -107.389193 4.447217e-02 60.148937
2.346000e+00 4.451864e-02 59.498860 1.001063e+00 -107.655790 1.001063e+00 -107.655790 4.451864e-02 59.498860
2.351800e+00 4.456598e-02 58.848037 1.001058e+00 -107.922273 1.001058e+00 -107.922273 4.456598e-02 58.848037
2.357600e+00 4.461409e-02 58.196584 1.001054e+00 -108.188641 1.001054e+00 -108.188641 4.461409e-02 58.196584
2.363400e+00 4.466304e-02 57.544615 1.001049e+00 -108.455066 1.001049e+00 -108.455066 4.466304e-02 57.544615
2.369200e+00 4.471286e-02 56.892016 1.001043e+00 -108.721435 1.001043e+00 -108.721435 4.471286e-02 56.892016
2.375000e+00 4.476345e-02 56.238827 1.001037e+00 -108.987803 1.001037e+00 -108.987803 4.476345e-02 56.238827
2.380800e+00 4.481485e-02 55.584985 1.001031e+00 -109.254056 1.001031e+00 -109.254056 4.481485e-02 55.584985
2.386600e+00 4.486717e-02 54.930524 1.001026e+00 -109.520252 1.001026e+00 -109.520252 4.486717e-02 54.930524
2.392400e+00 4.492034e-02 54.275599 1.001019e+00 -109.786448 1.001019e+00 -109.786448 4.492034e-02 54.275599
2.398200e+00 4.497444e-02 53.620072 1.001013e+00 -110.052587 1.001013e+00 -110.052587 4.497444e-02 53.620072
2.404000e+00 4.502939e-02 52.963926 1.001008e+00 -110.318669 1.001008e+00 -110.318669 4.502939e-02 52.963926
2.409800e+00 4.508523e-02 52.307288 1.001002e+00 -110.584693 1.001002e+00 -110.584693 4.508523e-02 52.307288
2.415600e+00 4.514200e-02 51.650111 1.000996e+00 -110.850718 1.000996e+00 -110.850718 4.514200e-02 51.650111
2.421400e+00 4.519967e-02 50.992459 1.000992e+00 -111.116627 1.000992e+00 -111.116627 4.519967e-02 50.992459
2.427200e+00 4.525829e-02 50.334279 1.000986e+00 -111.382594 1.000986e+00 -111.382594 4.525829e-02 50.334279
2.433000e+00 4.531782e-02 49.675636 1.000982e+00 -111.648447 1.000982e+00 -111.648447 4.531782e-02 49.675636
2.438800e+00 4.537837e-02 49.016379 1.000978e+00 -111.914356 1.000978e+00 -111.914356 4.537837e-02 49.016379
2.444600e+00 4.543978e-02 48.356756 1.000975e+00 -112.180152 1.000975e+00 -112.180152 4.543978e-02 48.356756
2.450400e+00 4.550222e-02 47.696531 1.000971e+00 -112.445889 1.000971e+00 -112.445889 4.550222e-02 47.696531
2.456200e+00 4.556552e-02 47.035945 1.000970e+00 -112.711627 1.000970e+00 -112.711627 4.556552e-02 47.035945
2.462000e+00 4.562994e-02 46.374849 1.000968e+00 -112.977422 1.000968e+00 -112.977422 4.562994e-02 46.374849
2.467800e+00 4.569523e-02 45.713392 1.000967e+00 -113.243103 1.000967e+00 -113.243103 4.569523e-02 45.713392
2.473600e+00 4.576164e-02 45.051437 1.000966e+00 -113.508783 1.000966e+00 -113.508783 4.576164e-02 45.051437
2.479400e+00 4.582892e-02 44.389120 1.000967e+00 -113.774464 1.000967e+00 -113.774464 4.582892e-02 44.389120
2.485200e+00 4.589720e-02 43.726311 1.000967e+00 -114.040087 1.000967e+00 -114.040087 4.589720e-02 43.726311
2.491000e+00 4.596656e-02 43.063227 1.000969e+00 -114.305768 1.000969e+00 -114.305768 4.596656e-02 43.063227
2.496800e+00 4.603692e-02 42.399650 1.000972e+00 -114.571391 1.000972e+00 -114.571391 4.603692e-02 42.399650
2.502600e+00 4.610824e-02 41.735799 1.000975e+00 -114.837071 1.000975e+00 -114.837071 4.610824e-02 41.735799
2.508400e+00 4.618062e-02 41.071534 1.000980e+00 -115.102695 1.000980e+00 -115.102695 4.618062e-02 41.071534
2.514200e+00 4.625396e-02 40.406811 1.000985e+00 -115.368375 1.000985e+00 -115.368375 4.625396e-02 40.406811
2.520000e+00 4.632843e-02 39.741945 1.000989e+00 -115.633998 1.000989e+00 -115.633998 4.632843e-02 39.741945
2.525800e+00 4.640380e-02 39.076696 1.000997e+00 -115.899679 1.000997e+00 -115.899679 4.640380e-02 39.076696
2.531600e+00 4.648030e-02 38.411119 1.001004e+00 -116.165359 1.001004e+00 -116.165359 4.648030e-02 38.411119
2.537400e+00 4.655775e-02 37.745233 1.001011e+00 -116.431097 1.001011e+00 -116.431097 4.655775e-02 37.745233
2.543200e+00 4.663641e-02 37.079124 1.001020e+00 -116.696778 1.001020e+00 -116.696778 4.663641e-02 37.079124
2.549000e+00 4.671595e-02 36.412763 1.001029e+00 -116.962573 1.001029e+00 -116.962573 4.671595e-02 36.412763
2.554800e+00 4.679662e-02 35.746063 1.001039e+00 -117.228311 1.001039e+00 -117.228311 4.679662e-02 35.746063
2.560600e+00 4.687823e-02 35.079192 1.001050e+00 -117.494163 1.001050e+00 -117.494163 4.687823e-02 35.079192
2.566400e+00 4.696096e-02 34.412137 1.001061e+00 -117.760016 1.001061e+00 -117.760016 4.696096e-02 34.412137
2.572200e+00 4.704470e-02 33.744825 1.001072e+00 -118.025868 1.001072e+00 -118.025868 4.704470e-02 33.744825
2.578000e+00 4.712955e-02 33.077306 1.001084e+00 -118.291778 1.001084e+00 -118.291778 4.712955e-02 33.077306
2.583800e+00 4.721547e-02 32.409610 1.001096e+00 -118.557745 1.001096e+00 -118.557745 4.721547e-02 32.409610
2.589600e+00 4.730233e-02 31.741816 1.001109e+00 -118.823769 1.001109e+00 -118.823769 4.730233e-02 31.741816
2.595400e+00 4.739031e-02 31.073919 1.001122e+00 -119.089793 1.001122e+00 -119.089793 4.739031e-02 31.073919
2.601200e+00 4.747939e-02 30.405776 1.001135e+00 -119.355875 1.001135e+00 -119.355875 4.747939e-02 30.405776
2.607000e+00 4.756940e-02 29.737621 1.001149e+00 -119.622014 1.001149e+00 -119.622014 4.756940e-02 29.737621
2.612800e+00 4.766062e-02 29.069398 1.001162e+00 -119.888210 1.001162e+00 -119.888210 4.766062e-02 29.069398
2.618600e+00 4.775285e-02 28.401077 1.001176e+00 -120.154406 1.001176e+00 -120.154406 4.775285e-02 28.401077
2.624400e+00 4.784605e-02 27.732664 1.001190e+00 -120.420717 1.001190e+00 -120.420717 4.784605e-02 27.732664
2.630200e+00 4.794034e-02 27.064320 1.001203e+00 -120.687028 1.001203e+00 -120.687028 4.794034e-02 27.064320
2.636000e+00 4.803573e-02 26.395902 1.001218e+00 -120.953396 1.001218e+00 -120.953396 4.803573e-02 26.395902
2.641800e+00 4.813217e-02 25.727415 1.001231e+00 -121.219821 1.001231e+00 -121.219821 4.813217e-02 25.727415
2.647600e+00 4.822959e-02 25.059123 1.001245e+00 -121.486247 1.001245e+00 -121.486247 4.822959e-02 25.059123
2.653400e+00 4.832814e-02 24.390664 1.001258e+00 -121.752787 1.001258e+00 -121.752787 4.832814e-02 24.390664
2.659200e+00 4.842771e-02 23.722475 1.001271e+00 -122.019327 1.001271e+00 -122.019327 4.842771e-02 23.722475
2.665000e+00 4.852833e-02 23.054229 1.001283e+00 -122.285924 1.001283e+00 -122.285924 4.852833e-02 23.054229
2.670800e+00 4.863005e-02 22.386149 1.001295e+00 -122.552578 1.001295e+00 -122.552578 4.863005e-02 22.386149
2.676600e+00 4.873286e-02 21.718074 1.001307e+00 -122.819176 1.001307e+00 -122.819176 4.873286e-02 21.718074
2.682400e+00 4.883669e-02 21.050275 1.001318e+00 -123.085945 1.001318e+00 -123.085945 4.883669e-02 21.050275
2.688200e+00 4.894153e-02 20.382578 1.001328e+00 -123.352657 1.001328e+00 -123.352657 4.894153e-02 20.382578
2.694000e+00 4.904747e-02 19.715054 1.001339e+00 -123.619483 1.001339e+00 -123.619483 4.904747e-02 19.715054
2.699800e+00 4.915444e-02 19.047690 1.001348e+00 -123.886252 1.001348e+00 -123.886252 4.915444e-02 19.047690
2.705600e+00 4.926246e-02 18.380698 1.001357e+00 -124.153136 1.001357e+00 -124.153136 4.926246e-02 18.380698
2.711400e+00 4.937159e-02 17.713769 1.001364e+00 -124.419962 1.001364e+00 -124.419962 4.937159e-02 17.713769
2.717200e+00 4.948174e-02 17.047156 1.001372e+00 -124.686846 1.001372e+00 -124.686846 4.948174e-02 17.047156
2.723000e+00 4.959295e-02 16.380795 1.001380e+00 -124.953787 1.001380e+00 -124.953787 4.959295e-02 16.380795
2.728800e+00 4.970519e-02 15.714794 1.001385e+00 -125.220728 1.001385e+00 -125.220728 4.970519e-02 15.714794
2.734600e+00 4.981859e-02 15.049063 1.001391e+00 -125.487669 1.001391e+00 -125.487669 4.981859e-02 15.049063
2.740400e+00 4.993299e-02 14.383618 1.001395e+00 -125.754610 1.001395e+00 -125.754610 4.993299e-02 14.383618
2.746200e+00 5.004836e-02 13.718546 1.001399e+00 -126.021494 1.001399e+00 -126.021494 5.004836e-02 13.718546
2.752000e+00 5.016495e-02 13.053858 1.001402e+00 -126.288550 1.001402e+00 -126.288550 5.016495e-02 13.053858
2.757800e+00 5.028251e-02 12.389582 1.001405e+00 -126.555491 1.001405e+00 -126.555491 5.028251e-02 12.389582
2.763600e+00 5.040119e-02 11.725747 1.001407e+00 -126.822432 1.001407e+00 -126.822432 5.040119e-02 11.725747
2.769400e+00 5.052081e-02 11.062262 1.001407e+00 -127.089373 1.001407e+00 -127.089373 5.052081e-02 11.062262
2.775200e+00 5.064164e-02 10.399224 1.001408e+00 -127.356371 1.001408e+00 -127.356371 5.064164e-02 10.399224
2.781000e+00 5.076342e-02 9.736656 1.001408e+00 -127.623312 1.001408e+00 -127.623312 5.076342e-02 9.736656
2.786800e+00 5.088630e-02 9.074574 1.001406e+00 -127.890311 1.001406e+00 -127.890311 5.088630e-02 9.074574
2.792600e+00 5.101031e-02 8.412968 1.001405e+00 -128.157194 1.001405e+00 -128.157194 5.101031e-02 8.412968
2.798400e+00 5.113530e-02 7.751873 1.001403e+00 -128.424078 1.001403e+00 -128.424078 5.113530e-02 7.751873
2.804200e+00 5.126142e-02 7.091310 1.001400e+00 -128.691019 1.001400e+00 -128.691019 5.126142e-02 7.091310
2.810000e+00 5.138859e-02 6.431279 1.001396e+00 -128.957788 1.001396e+00 -128.957788 5.138859e-02 6.431279
2.815800e+00 5.151687e-02 5.771811 1.001393e+00 -129.224672 1.001393e+00 -129.224672 5.151687e-02 5.771811
2.821600e+00 5.164620e-02 5.112917 1.001388e+00 -129.491498 1.001388e+00 -129.491498 5.164620e-02 5.112917
2.827400e+00 5.177651e-02 4.454615 1.001384e+00 -129.758268 1.001384e+00 -129.758268 5.177651e-02 4.454615
2.833200e+00 5.190804e-02 3.796905 1.001379e+00 -130.025037 1.001379e+00 -130.025037 5.190804e-02 3.796905
2.839000e+00 5.204052e-02 3.139816 1.001373e+00 -130.291806 1.001373e+00 -130.291806 5.204052e-02 3.139816
2.844800e+00 5.217410e-02 2.483366 1.001368e+00 -130.558575 1.001368e+00 -130.558575 5.217410e-02 2.483366
2.850600e+00 5.230881e-02 1.827551 1.001361e+00 -130.825230 1.001361e+00 -130.825230 5.230881e-02 1.827551
2.856400e+00 5.244458e-02 1.172390 1.001355e+00 -131.091884 1.001355e+00 -131.091884 5.244458e-02 1.172390
2.862200e+00 5.258145e-02 0.517904 1.001349e+00 -131.358539 1.001349e+00 -131.358539 5.258145e-02 0.517904
2.868000e+00 5.271935e-02 -0.135900 1.001343e+00 -131.625136 1.001343e+00 -131.625136 5.271935e-02 -0.135900
2.873800e+00 5.285831e-02 -0.789010 1.001336e+00 -131.891676 1.001336e+00 -131.891676 5.285831e-02 -0.789010
2.879600e+00 5.299847e-02 -1.441409 1.001329e+00 -132.158216 1.001329e+00 -132.158216 5.299847e-02 -1.441409
2.885400e+00 5.313955e-02 -2.093105 1.001323e+00 -132.424756 1.001323e+00 -132.424756 5.313955e-02 -2.093105
2.891200e+00 5.328180e-02 -2.744056 1.001317e+00 -132.691181 1.001317e+00 -132.691181 5.328180e-02 -2.744056
2.897000e+00 5.342512e-02 -3.394284 1.001311e+00 -132.957664 1.001311e+00 -132.957664 5.342512e-02 -3.394284
2.902800e+00 5.356956e-02 -4.043752 1.001305e+00 -133.224089 1.001305e+00 -133.224089 5.356956e-02 -4.043752
2.908600e+00 5.371504e-02 -4.692465 1.001299e+00 -133.490457 1.001299e+00 -133.490457 5.371504e-02 -4.692465
2.914400e+00 5.386160e-02 -5.340419 1.001293e+00 -133.756883 1.001293e+00 -133.756883 5.386160e-02 -5.340419
2.920200e+00 5.400925e-02 -5.987581 1.001288e+00 -134.023251 1.001288e+00 -134.023251 5.400925e-02 -5.987581
2.926000e+00 5.415792e-02 -6.633980 1.001283e+00 -134.289562 1.001283e+00 -134.289562 5.415792e-02 -6.633980
2.931800e+00 5.430774e-02 -7.279566 1.001278e+00 -134.555930 1.001278e+00 -134.555930 5.430774e-02 -7.279566
2.937600e+00 5.445863e-02 -7.924356 1.001274e+00 -134.822183 1.001274e+00 -134.822183 5.445863e-02 -7.924356
2.943400e+00 5.461052e-02 -8.568355 1.001270e+00 -135.088551 1.001270e+00 -135.088551 5.461052e-02 -8.568355
2.949200e+00 5.476353e-02 -9.211534 1.001266e+00 -135.354805 1.001266e+00 -135.354805 5.476353e-02 -9.211534
2.955000e+00 5.491768e-02 -9.853871 1.001263e+00 -135.621058 1.001263e+00 -135.621058 5.491768e-02 -9.853871
2.960800e+00 5.507280e-02 -10.495429 1.001261e+00 -135.887369 1.001261e+00 -135.887369 5.507280e-02 -10.495429
2.966600e+00 5.522909e-02 -11.136042 1.001258e+00 -136.153622 1.001258e+00 -136.153622 5.522909e-02 -11.136042
2.972400e+00 5.538640e-02 -11.775904 1.001256e+00 -136.419876 1.001256e+00 -136.419876 5.538640e-02 -11.775904
2.978200e+00 5.554475e-02 -12.414976 1.001255e+00 -136.686129 1.001255e+00 -136.686129 5.554475e-02 -12.414976
2.984000e+00 5.570413e-02 -13.053102 1.001253e+00 -136.952440 1.001253e+00 -136.952440 5.570413e-02 -13.053102
2.989800e+00 5.586468e-02 -13.690408 1.001253e+00 -137.218694 1.001253e+00 -137.218694 5.586468e-02 -13.690408
2.995600e+00 5.602621e-02 -14.326787 1.001253e+00 -137.485004 1.001253e+00 -137.485004 5.602621e-02 -14.326787
3.001400e+00 5.618875e-02 -14.962403 1.001253e+00 -137.751258 1.001253e+00 -137.751258 5.618875e-02 -14.962403
3.007200e+00 5.635240e-02 -15.597069 1.001254e+00 -138.017569 1.001254e+00 -138.017569 5.635240e-02 -15.597069
3.013000e+00 5.651709e-02 -16.230869 1.001255e+00 -138.283937 1.001255e+00 -138.283937 5.651709e-02 -16.230869
3.018800e+00 5.668275e-02 -16.863873 1.001256e+00 -138.550248 1.001256e+00 -138.550248 5.668275e-02 -16.863873
3.024600e+00 5.684954e-02 -17.495891 1.001258e+00 -138.816558 1.001258e+00 -138.816558 5.684954e-02 -17.495891
3.030400e+00 5.701735e-02 -18.127124 1.001260e+00 -139.082984 1.001260e+00 -139.082984 5.701735e-02 -18.127124
3.036200e+00 5.718614e-02 -18.757424 1.001262e+00 -139.349352 1.001262e+00 -139.349352 5.718614e-02 -18.757424
3.042000e+00 5.735595e-02 -19.386852 1.001265e+00 -139.615777 1.001265e+00 -139.615777 5.735595e-02 -19.386852
3.047800e+00 5.752676e-02 -20.015358 1.001268e+00 -139.882203 1.001268e+00 -139.882203 5.752676e-02 -20.015358
3.053600e+00 5.769862e-02 -20.642993 1.001270e+00 -140.148685 1.001270e+00 -140.148685 5.769862e-02 -20.642993
3.059400e+00 5.787149e-02 -21.269620 1.001274e+00 -140.415225 1.001274e+00 -140.415225 5.787149e-02 -21.269620
3.065200e+00 5.804534e-02 -21.895422 1.001277e+00 -140.681708 1.001277e+00 -140.681708 5.804534e-02 -21.895422
3.071000e+00 5.822016e-02 -22.520353 1.001281e+00 -140.948248 1.001281e+00 -140.948248 5.822016e-02 -22.520353
3.076800e+00 5.839596e-02 -23.144378 1.001284e+00 -141.214845 1.001284e+00 -141.214845 5.839596e-02 -23.144378
3.082600e+00 5.857273e-02 -23.767452 1.001286e+00 -141.481442 1.001286e+00 -141.481442 5.857273e-02 -23.767452
3.088400e+00 5.875053e-02 -24.389719 1.001290e+00 -141.748097 1.001290e+00 -141.748097 5.875053e-02 -24.389719
3.094200e+00 5.892928e-02 -25.010954 1.001293e+00 -142.014809 1.001293e+00 -142.014809 5.892928e-02 -25.010954
3.100000e+00 5.910892e-02 -25.631261 1.001296e+00 -142.281463 1.001296e+00 -142.281463 5.910892e-02 -25.631261
3.105800e+00 5.928952e-02 -26.250772 1.001300e+00 -142.548232 1.001300e+00 -142.548232 5.928952e-02 -26.250772
3.111600e+00 5.947108e-02 -26.869234 1.001302e+00 -142.814944 1.001302e+00 -142.814944 5.947108e-02 -26.869234
3.117400e+00 5.965349e-02 -27.486882 1.001305e+00 -143.081714 1.001305e+00 -143.081714 5.965349e-02 -27.486882
3.123200e+00 5.983693e-02 -28.103580 1.001307e+00 -143.348540 1.001307e+00 -143.348540 5.983693e-02 -28.103580
3.129000e+00 6.002128e-02 -28.719343 1.001308e+00 -143.615366 1.001308e+00 -143.615366 6.002128e-02 -28.719343
3.134800e+00 6.020644e-02 -29.334184 1.001310e+00 -143.882250 1.001310e+00 -143.882250 6.020644e-02 -29.334184
3.140600e+00 6.039263e-02 -29.948069 1.001312e+00 -144.149134 1.001312e+00 -144.149134 6.039263e-02 -29.948069
3.146400e+00 6.057965e-02 -30.561053 1.001312e+00 -144.416018 1.001312e+00 -144.416018 6.057965e-02 -30.561053
3.152200e+00 6.076748e-02 -31.173110 1.001312e+00 -144.682959 1.001312e+00 -144.682959 6.076748e-02 -31.173110
3.158000e+00 6.095625e-02 -31.784244 1.001312e+00 -144.949900 1.001312e+00 -144.949900 6.095625e-02 -31.784244
3.163800e+00 6.114584e-02 -32.394472 1.001311e+00 -145.216841 1.001311e+00 -145.216841 6.114584e-02 -32.394472
3.169600e+00 6.133633e-02 -33.003721 1.001310e+00 -145.483839 1.001310e+00 -145.483839 6.133633e-02 -33.003721
3.175400e+00 6.152765e-02 -33.612093 1.001308e+00 -145.750780 1.001308e+00 -145.750780 6.152765e-02 -33.612093
3.181200e+00 6.171974e-02 -34.219486 1.001306e+00 -146.017778 1.001306e+00 -146.017778 6.171974e-02 -34.219486
3.187000e+00 6.191277e-02 -34.825973 1.001304e+00 -146.284777 1.001304e+00 -146.284777 6.191277e-02 -34.825973
3.192800e+00 6.210643e-02 -35.431487 1.001300e+00 -146.551775 1.001300e+00 -146.551775 6.210643e-02 -35.431487
3.198600e+00 6.230112e-02 -36.036066 1.001296e+00 -146.818831 1.001296e+00 -146.818831 6.230112e-02 -36.036066
3.204400e+00 6.249644e-02 -36.639711 1.001292e+00 -147.085829 1.001292e+00 -147.085829 6.249644e-02 -36.639711
3.210200e+00 6.269259e-02 -37.242486 1.001287e+00 -147.352770 1.001287e+00 -147.352770 6.269259e-02 -37.242486
3.216000e+00 6.288953e-02 -37.844246 1.001281e+00 -147.619826 1.001281e+00 -147.619826 6.288953e-02 -37.844246
3.221800e+00 6.308724e-02 -38.445096 1.001274e+00 -147.886824 1.001274e+00 -147.886824 6.308724e-02 -38.445096
3.227600e+00 6.328568e-02 -39.045023 1.001268e+00 -148.153822 1.001268e+00 -148.153822 6.328568e-02 -39.045023
3.233400e+00 6.348496e-02 -39.644016 1.001261e+00 -148.420763 1.001261e+00 -148.420763 6.348496e-02 -39.644016
3.239200e+00 6.368491e-02 -40.242046 1.001253e+00 -148.687704 1.001253e+00 -148.687704 6.368491e-02 -40.242046
3.245000e+00 6.388556e-02 -40.839177 1.001245e+00 -148.954645 1.001245e+00 -148.954645 6.388556e-02 -40.839177
3.250800e+00 6.408696e-02 -41.435328 1.001236e+00 -149.221587 1.001236e+00 -149.221587 6.408696e-02 -41.435328
3.256600e+00 6.428900e-02 -42.030545 1.001228e+00 -149.488470 1.001228e+00 -149.488470 6.428900e-02 -42.030545
3.262400e+00 6.449178e-02 -42.624823 1.001218e+00 -149.755411 1.001218e+00 -149.755411 6.449178e-02 -42.624823
3.268200e+00 6.469528e-02 -43.218143 1.001208e+00 -150.022238 1.001208e+00 -150.022238 6.469528e-02 -43.218143
3.274000e+00 6.489952e-02 -43.810570 1.001198e+00 -150.289064 1.001198e+00 -150.289064 6.489952e-02 -43.810570
3.279800e+00 6.510439e-02 -44.402023 1.001188e+00 -150.555891 1.001188e+00 -150.555891 6.510439e-02 -44.402023
3.285600e+00 6.530980e-02 -44.992554 1.001176e+00 -150.822717 1.001176e+00 -150.822717 6.530980e-02 -44.992554
3.291400e+00 6.551598e-02 -45.582162 1.001166e+00 -151.089486 1.001166e+00 -151.089486 6.551598e-02 -45.582162
3.297200e+00 6.572275e-02 -46.170830 1.001154e+00 -151.356198 1.001154e+00 -151.356198 6.572275e-02 -46.170830
3.303000e+00 6.593022e-02 -46.758547 1.001143e+00 -151.622910 1.001143e+00 -151.622910 6.593022e-02 -46.758547
3.308800e+00 6.613828e-02 -47.345382 1.001131e+00 -151.889622 1.001131e+00 -151.889622 6.613828e-02 -47.345382
3.314600e+00 6.634688e-02 -47.931203 1.001119e+00 -152.156219 1.001119e+00 -152.156219 6.634688e-02 -47.931203
3.320400e+00 6.655627e-02 -48.516112 1.001107e+00 -152.422874 1.001107e+00 -152.422874 6.655627e-02 -48.516112
3.326200e+00 6.676613e-02 -49.100122 1.001095e+00 -152.689414 1.001095e+00 -152.689414 6.676613e-02 -49.100122
3.332000e+00 6.697654e-02 -49.683222 1.001084e+00 -152.955954 1.001084e+00 -152.955954 6.697654e-02 -49.683222
3.337800e+00 6.718755e-02 -50.265347 1.001072e+00 -153.222494 1.001072e+00 -153.222494 6.718755e-02 -50.265347
3.343600e+00 6.739916e-02 -50.846549 1.001061e+00 -153.489033 1.001061e+00 -153.489033 6.739916e-02 -50.846549
3.349400e+00 6.761129e-02 -51.426893 1.001049e+00 -153.755459 1.001049e+00 -153.755459 6.761129e-02 -51.426893
3.355200e+00 6.782409e-02 -52.006302 1.001038e+00 -154.021942 1.001038e+00 -154.021942 6.782409e-02 -52.006302
3.361000e+00 6.803728e-02 -52.584737 1.001027e+00 -154.288367 1.001027e+00 -154.288367 6.803728e-02 -52.584737
3.366800e+00 6.825107e-02 -53.162353 1.001016e+00 -154.554735 1.001016e+00 -154.554735 6.825107e-02 -53.162353
3.372600e+00 6.846537e-02 -53.738926 1.001006e+00 -154.821103 1.001006e+00 -154.821103 6.846537e-02 -53.738926
3.378400e+00 6.868016e-02 -54.314692 1.000996e+00 -155.087471 1.000996e+00 -155.087471 6.868016e-02 -54.314692
3.384200e+00 6.889552e-02 -54.889517 1.000986e+00 -155.353782 1.000986e+00 -155.353782 6.889552e-02 -54.889517
3.390000e+00 6.911134e-02 -55.463472 1.000976e+00 -155.620093 1.000976e+00 -155.620093 6.911134e-02 -55.463472
3.395800e+00 6.932764e-02 -56.036498 1.000967e+00 -155.886346 1.000967e+00 -155.886346 6.932764e-02 -56.036498
3.401600e+00 6.954435e-02 -56.608608 1.000958e+00 -156.152600 1.000958e+00 -156.152600 6.954435e-02 -56.608608
3.407400e+00 6.976159e-02 -57.179893 1.000950e+00 -156.418853 1.000950e+00 -156.418853 6.976159e-02 -57.179893
3.413200e+00 6.997929e-02 -57.750250 1.000942e+00 -156.685107 1.000942e+00 -156.685107 6.997929e-02 -57.750250
3.419000e+00 7.019739e-02 -58.319712 1.000935e+00 -156.951360 1.000935e+00 -156.951360 7.019739e-02 -58.319712
3.424800e+00 7.041592e-02 -58.888258 1.000928e+00 -157.217671 1.000928e+00 -157.217671 7.041592e-02 -58.888258
3.430600e+00 7.063498e-02 -59.456002 1.000922e+00 -157.483810 1.000922e+00 -157.483810 7.063498e-02 -59.456002
3.436400e+00 7.085436e-02 -60.022829 1.000915e+00 -157.750063 1.000915e+00 -157.750063 7.085436e-02 -60.022829
3.442200e+00 7.107420e-02 -60.588797 1.000910e+00 -158.016317 1.000910e+00 -158.016317 7.107420e-02 -60.588797
3.448000e+00 7.129440e-02 -61.153905 1.000905e+00 -158.282513 1.000905e+00 -158.282513 7.129440e-02 -61.153905
3.453800e+00 7.151495e-02 -61.718097 1.000900e+00 -158.548709 1.000900e+00 -158.548709 7.151495e-02 -61.718097
3.459600e+00 7.173602e-02 -62.281429 1.000896e+00 -158.815020 1.000896e+00 -158.815020 7.173602e-02 -62.281429
3.465400e+00 7.195728e-02 -62.843959 1.000892e+00 -159.081273 1.000892e+00 -159.081273 7.195728e-02 -62.843959
3.471200e+00 7.217908e-02 -63.405630 1.000889e+00 -159.347470 1.000889e+00 -159.347470 7.217908e-02 -63.405630
3.477000e+00 7.240114e-02 -63.966441 1.000886e+00 -159.613723 1.000886e+00 -159.613723 7.240114e-02 -63.966441
3.482800e+00 7.262349e-02 -64.526392 1.000884e+00 -159.880034 1.000884e+00 -159.880034 7.262349e-02 -64.526392
3.488600e+00 7.284622e-02 -65.085599 1.000880e+00 -160.146345 1.000880e+00 -160.146345 7.284622e-02 -65.085599
3.494400e+00 7.306929e-02 -65.643889 1.000878e+00 -160.412655 1.000878e+00 -160.412655 7.306929e-02 -65.643889
3.500200e+00 7.329263e-02 -66.201377 1.000877e+00 -160.678966 1.000877e+00 -160.678966 7.329263e-02 -66.201377
3.506000e+00 7.351623e-02 -66.757948 1.000875e+00 -160.945334 1.000875e+00 -160.945334 7.351623e-02 -66.757948
3.511800e+00 7.374020e-02 -67.313832 1.000875e+00 -161.211702 1.000875e+00 -161.211702 7.374020e-02 -67.313832
3.517600e+00 7.396442e-02 -67.868799 1.000874e+00 -161.478071 1.000874e+00 -161.478071 7.396442e-02 -67.868799
3.523400e+00 7.418896e-02 -68.422964 1.000873e+00 -161.744496 1.000873e+00 -161.744496 7.418896e-02 -68.422964
3.529200e+00 7.441372e-02 -68.976384 1.000873e+00 -162.010921 1.000873e+00 -162.010921 7.441372e-02 -68.976384
3.535000e+00 7.463867e-02 -69.529001 1.000872e+00 -162.277404 1.000872e+00 -162.277404 7.463867e-02 -69.529001
3.540800e+00 7.486399e-02 -70.080874 1.000872e+00 -162.543887 1.000872e+00 -162.543887 7.486399e-02 -70.080874
3.546600e+00 7.508942e-02 -70.631888 1.000872e+00 -162.810427 1.000872e+00 -162.810427 7.508942e-02 -70.631888
3.552400e+00 7.531512e-02 -71.182042 1.000871e+00 -163.076909 1.000871e+00 -163.076909 7.531512e-02 -71.182042
3.558200e+00 7.554103e-02 -71.731508 1.000871e+00 -163.343506 1.000871e+00 -163.343506 7.554103e-02 -71.731508
3.564000e+00 7.576718e-02 -72.280173 1.000871e+00 -163.610104 1.000871e+00 -163.610104 7.576718e-02 -72.280173
3.569800e+00 7.599345e-02 -72.828092 1.000870e+00 -163.876701 1.000870e+00 -163.876701 7.599345e-02 -72.828092
3.575600e+00 7.621996e-02 -73.375267 1.000869e+00 -164.143356 1.000869e+00 -164.143356 7.621996e-02 -73.375267
3.581400e+00 7.644662e-02 -73.921582 1.000868e+00 -164.410010 1.000868e+00 -164.410010 7.644662e-02 -73.921582
3.587200e+00 7.667340e-02 -74.467267 1.000867e+00 -164.676665 1.000867e+00 -164.676665 7.667340e-02 -74.467267
3.593000e+00 7.690042e-02 -75.012093 1.000865e+00 -164.943377 1.000865e+00 -164.943377 7.690042e-02 -75.012093
3.598800e+00 7.712748e-02 -75.556231 1.000864e+00 -165.210088 1.000864e+00 -165.210088 7.712748e-02 -75.556231
3.604600e+00 7.735475e-02 -76.099624 1.000862e+00 -165.476800 1.000862e+00 -165.476800 7.735475e-02 -76.099624
3.610400e+00 7.758216e-02 -76.642272 1.000859e+00 -165.743569 1.000859e+00 -165.743569 7.758216e-02 -76.642272
3.616200e+00 7.780959e-02 -77.184119 1.000857e+00 -166.010339 1.000857e+00 -166.010339 7.780959e-02 -77.184119
3.622000e+00 7.803716e-02 -77.725335 1.000854e+00 -166.277108 1.000854e+00 -166.277108 7.803716e-02 -77.725335
3.627800e+00 7.826480e-02 -78.265863 1.000850e+00 -166.543877 1.000850e+00 -166.543877 7.826480e-02 -78.265863
3.633600e+00 7.849260e-02 -78.805532 1.000846e+00 -166.810703 1.000846e+00 -166.810703 7.849260e-02 -78.805532
3.639400e+00 7.872047e-02 -79.344628 1.000842e+00 -167.077530 1.000842e+00 -167.077530 7.872047e-02 -79.344628
3.645200e+00 7.894836e-02 -79.882979 1.000837e+00 -167.344299 1.000837e+00 -167.344299 7.894836e-02 -79.882979
3.651000e+00 7.917635e-02 -80.420585 1.000831e+00 -167.611125 1.000831e+00 -167.611125 7.917635e-02 -80.420585
3.656800e+00 7.940433e-02 -80.957504 1.000826e+00 -167.877952 1.000826e+00 -167.877952 7.940433e-02 -80.957504
3.662600e+00 7.963236e-02 -81.493850 1.000820e+00 -168.144778 1.000820e+00 -168.144778 7.963236e-02 -81.493850
3.668400e+00 7.986041e-02 -82.029336 1.000813e+00 -168.411605 1.000813e+00 -168.411605 7.986041e-02 -82.029336
3.674200e+00 8.008850e-02 -82.564250 1.000806e+00 -168.678374 1.000806e+00 -168.678374 8.008850e-02 -82.564250
3.680000e+00 8.031666e-02 -83.098475 1.000799e+00 -168.945200 1.000799e+00 -168.945200 8.031666e-02 -83.098475
3.685800e+00 8.054475e-02 -83.632014 1.000791e+00 -169.211969 1.000791e+00 -169.211969 8.054475e-02 -83.632014
3.691600e+00 8.077281e-02 -84.164922 1.000782e+00 -169.478796 1.000782e+00 -169.478796 8.077281e-02 -84.164922
3.697400e+00 8.100087e-02 -84.697200 1.000773e+00 -169.745508 1.000773e+00 -169.745508 8.100087e-02 -84.697200
3.703200e+00 8.122898e-02 -85.228790 1.000764e+00 -170.012334 1.000764e+00 -170.012334 8.122898e-02 -85.228790
3.709000e+00 8.145697e-02 -85.759693 1.000753e+00 -170.278989 1.000753e+00 -170.278989 8.145697e-02 -85.759693
3.714800e+00 8.168498e-02 -86.290022 1.000743e+00 -170.545758 1.000743e+00 -170.545758 8.168498e-02 -86.290022
3.720600e+00 8.191295e-02 -86.819722 1.000732e+00 -170.812412 1.000732e+00 -170.812412 8.191295e-02 -86.819722
3.726400e+00 8.214082e-02 -87.348734 1.000722e+00 -171.079067 1.000722e+00 -171.079067 8.214082e-02 -87.348734
3.732200e+00 8.236863e-02 -87.877173 1.000711e+00 -171.345722 1.000711e+00 -171.345722 8.236863e-02 -87.877173
3.738000e+00 8.259630e-02 -88.404981 1.000700e+00 -171.612319 1.000700e+00 -171.612319 8.259630e-02 -88.404981
3.743800e+00 8.282398e-02 -88.932217 1.000688e+00 -171.878973 1.000688e+00 -171.878973 8.282398e-02 -88.932217
3.749600e+00 8.305150e-02 -89.458823 1.000676e+00 -172.145513 1.000676e+00 -172.145513 8.305150e-02 -89.458823
3.755400e+00 8.327900e-02 -89.984798 1.000665e+00 -172.412053 1.000665e+00 -172.412053 8.327900e-02 -89.984798
3.761200e+00 8.350631e-02 -90.510257 1.000653e+00 -172.678536 1.000653e+00 -172.678536 8.350631e-02 -90.510257
3.767000e+00 8.373356e-02 -91.035087 1.000640e+00 -172.945019 1.000640e+00 -172.945019 8.373356e-02 -91.035087
3.772800e+00 8.396069e-02 -91.559343 1.000628e+00 -173.211501 1.000628e+00 -173.211501 8.396069e-02 -91.559343
3.778600e+00 8.418763e-02 -92.083027 1.000616e+00 -173.477927 1.000616e+00 -173.477927 8.418763e-02 -92.083027
3.784400e+00 8.441451e-02 -92.606137 1.000604e+00 -173.744295 1.000604e+00 -173.744295 8.441451e-02 -92.606137
3.790200e+00 8.464116e-02 -93.128732 1.000592e+00 -174.010663 1.000592e+00 -174.010663 8.464116e-02 -93.128732
3.796000e+00 8.486762e-02 -93.650754 1.000580e+00 -174.276974 1.000580e+00 -174.276974 8.486762e-02 -93.650754
3.801800e+00 8.509401e-02 -94.172203 1.000568e+00 -174.543284 1.000568e+00 -174.543284 8.509401e-02 -94.172203
3.807600e+00 8.532016e-02 -94.693136 1.000557e+00 -174.809538 1.000557e+00 -174.809538 8.532016e-02 -94.693136
3.813400e+00 8.554611e-02 -95.213553 1.000545e+00 -175.075791 1.000545e+00 -175.075791 8.554611e-02 -95.213553
3.819200e+00 8.577198e-02 -95.733398 1.000534e+00 -175.342045 1.000534e+00 -175.342045 8.577198e-02 -95.733398
3.825000e+00 8.599750e-02 -96.252784 1.000523e+00 -175.608241 1.000523e+00 -175.608241 8.599750e-02 -96.252784
3.830800e+00 8.622289e-02 -96.771598 1.000513e+00 -175.874380 1.000513e+00 -175.874380 8.622289e-02 -96.771598
3.836600e+00 8.644799e-02 -97.290010 1.000502e+00 -176.140519 1.000502e+00 -176.140519 8.644799e-02 -97.290010
3.842400e+00 8.667292e-02 -97.807849 1.000492e+00 -176.406658 1.000492e+00 -176.406658 8.667292e-02 -97.807849
3.848200e+00 8.689761e-02 -98.325173 1.000482e+00 -176.672797 1.000482e+00 -176.672797 8.689761e-02 -98.325173
3.854000e+00 8.712207e-02 -98.842038 1.000474e+00 -176.938878 1.000474e+00 -176.938878 8.712207e-02 -98.842038
3.859800e+00 8.734625e-02 -99.358445 1.000465e+00 -177.204960 1.000465e+00 -177.204960 8.734625e-02 -99.358445
3.865600e+00 8.757016e-02 -99.874393 1.000456e+00 -177.470984 1.000456e+00 -177.470984 8.757016e-02 -99.874393
3.871400e+00 8.779380e-02 -100.389826 1.000448e+00 -177.737066 1.000448e+00 -177.737066 8.779380e-02 -100.389826
3.877200e+00 8.801714e-02 -100.904801 1.000442e+00 -178.003090 1.000442e+00 -178.003090 8.801714e-02 -100.904801
3.883000e+00 8.824018e-02 -101.419374 1.000434e+00 -178.269114 1.000434e+00 -178.269114 8.824018e-02 -101.419374
3.888800e+00 8.846293e-02 -101.933489 1.000427e+00 -178.535139 1.000427e+00 -178.535139 8.846293e-02 -101.933489
3.894600e+00 8.868532e-02 -102.447146 1.000419e+00 -178.801163 1.000419e+00 -178.801163 8.868532e-02 -102.447146
3.900400e+00 8.890748e-02 -102.960344 1.000413e+00 -179.067187 1.000413e+00 -179.067187 8.890748e-02 -102.960344
3.906200e+00 8.912931e-02 -103.473141 1.000408e+00 -179.333212 1.000408e+00 -179.333212 8.912931e-02 -103.473141
3.912000e+00 8.935074e-02 -103.985537 1.000404e+00 -179.599236 1.000404e+00 -179.599236 8.935074e-02 -103.985537
3.917800e+00 8.957179e-02 -104.497475 1.000403e+00 -179.865260 1.000403e+00 -179.865260 8.957179e-02 -104.497475
3.923600e+00 8.979250e-02 -105.009126 1.000403e+00 179.868698 1.000403e+00 179.868698 8.979250e-02 -105.009126
3.929400e+00 9.001282e-02 -105.520205 1.000394e+00 179.602616 1.000394e+00 179.602616 9.001282e-02 -105.520205
3.935200e+00 9.023285e-02 -106.030997 1.000397e+00 179.336592 1.000397e+00 179.336592 9.023285e-02 -106.030997
3.941000e+00 9.045243e-02 -106.541387 1.000392e+00 179.070510 1.000392e+00 179.070510 9.045243e-02 -106.541387
3.946800e+00 9.067161e-02 -107.051320 1.000388e+00 178.804429 1.000388e+00 178.804429 9.067161e-02 -107.051320
3.952600e+00 9.089042e-02 -107.560966 1.000386e+00 178.538347 1.000386e+00 178.538347 9.089042e-02 -107.560966
3.958400e+00 9.110874e-02 -108.070211 1.000384e+00 178.272208 1.000384e+00 178.272208 9.110874e-02 -108.070211
3.964200e+00 9.132661e-02 -108.579112 1.000383e+00 178.006069 1.000383e+00 178.006069 9.132661e-02 -108.579112
3.970000e+00 9.154414e-02 -109.087612 1.000382e+00 177.739931 1.000382e+00 177.739931 9.154414e-02 -109.087612
3.975800e+00 9.176119e-02 -109.595711 1.000381e+00 177.473734 1.000381e+00 177.473734 9.176119e-02 -109.595711
3.981600e+00 9.197773e-02 -110.103581 1.000380e+00 177.207538 1.000380e+00 177.207538 9.197773e-02 -110.103581
3.987400e+00 9.219385e-02 -110.610992 1.000379e+00 176.941342 1.000379e+00 176.941342 9.219385e-02 -110.610992
3.993200e+00 9.240946e-02 -111.118117 1.000379e+00 176.675088 1.000379e+00 176.675088 9.240946e-02 -111.118117
3.999000e+00 9.262455e-02 -111.624898 1.000378e+00 176.408835 1.000378e+00 176.408835 9.262455e-02 -111.624898
4.004800e+00 9.283914e-02 -112.131336 1.000378e+00 176.142524 1.000378e+00 176.142524 9.283914e-02 -112.131336
4.010600e+00 9.305334e-02 -112.637429 1.000377e+00 175.876213 1.000377e+00 175.876213 9.305334e-02 -112.637429
4.016400e+00 9.326694e-02 -113.143236 1.000377e+00 175.609903 1.000377e+00 175.609903 9.326694e-02 -113.143236
4.022200e+00 9.347999e-02 -113.648757 1.000376e+00 175.343592 1.000376e+00 175.343592 9.347999e-02 -113.648757
4.028000e+00 9.369253e-02 -114.153934 1.000375e+00 175.077166 1.000375e+00 175.077166 9.369253e-02 -114.153934
4.033800e+00 9.390457e-02 -114.658767 1.000374e+00 174.810798 1.000374e+00 174.810798 9.390457e-02 -114.658767
4.039600e+00 9.411596e-02 -115.163314 1.000374e+00 174.544373 1.000374e+00 174.544373 9.411596e-02 -115.163314
4.045400e+00 9.432686e-02 -115.667574 1.000372e+00 174.277948 1.000372e+00 174.277948 9.432686e-02 -115.667574
4.051200e+00 9.453715e-02 -116.171490 1.000370e+00 174.011522 1.000370e+00 174.011522 9.453715e-02 -116.171490
4.057000e+00 9.474689e-02 -116.675177 1.000367e+00 173.745040 1.000367e+00 173.745040 9.474689e-02 -116.675177
4.062800e+00 9.495605e-02 -117.178578 1.000365e+00 173.478557 1.000365e+00 173.478557 9.495605e-02 -117.178578
4.068600e+00 9.516469e-02 -117.681635 1.000362e+00 173.212132 1.000362e+00 173.212132 9.516469e-02 -117.681635
4.074400e+00 9.537262e-02 -118.184405 1.000360e+00 172.945592 1.000360e+00 172.945592 9.537262e-02 -118.184405
4.080200e+00 9.557990e-02 -118.686947 1.000356e+00 172.679109 1.000356e+00 172.679109 9.557990e-02 -118.686947
4.086000e+00 9.578667e-02 -119.189202 1.000352e+00 172.412569 1.000352e+00 172.412569 9.578667e-02 -119.189202
4.091800e+00 9.599279e-02 -119.691170 1.000348e+00 172.146029 1.000348e+00 172.146029 9.599279e-02 -119.691170
4.097600e+00 9.619822e-02 -120.192909 1.000342e+00 171.879546 1.000342e+00 171.879546 9.619822e-02 -120.192909
4.103400e+00 9.640310e-02 -120.694304 1.000337e+00 171.613064 1.000337e+00 171.613064 9.640310e-02 -120.694304
4.109200e+00 9.660733e-02 -121.195471 1.000331e+00 171.346524 1.000331e+00 171.346524 9.660733e-02 -121.195471
4.115000e+00 9.681088e-02 -121.696465 1.000325e+00 171.079984 1.000325e+00 171.079984 9.681088e-02 -121.696465
4.120800e+00 9.701378e-02 -122.197115 1.000318e+00 170.813444 1.000318e+00 170.813444 9.701378e-02 -122.197115
4.126600e+00 9.721595e-02 -122.697594 1.000311e+00 170.546961 1.000311e+00 170.546961 9.721595e-02 -122.697594
4.132400e+00 9.741755e-02 -123.197786 1.000303e+00 170.280478 1.000303e+00 170.280478 9.741755e-02 -123.197786
4.138200e+00 9.761850e-02 -123.697692 1.000294e+00 170.014053 1.000294e+00 170.014053 9.761850e-02 -123.697692
4.144000e+00 9.781867e-02 -124.197426 1.000286e+00 169.747570 1.000286e+00 169.747570 9.781867e-02 -124.197426
4.149800e+00 9.801829e-02 -124.696873 1.000277e+00 169.481202 1.000277e+00 169.481202 9.801829e-02 -124.696873
4.155600e+00 9.821717e-02 -125.196091 1.000267e+00 169.214777 1.000267e+00 169.214777 9.821717e-02 -125.196091
4.161400e+00 9.841529e-02 -125.695137 1.000257e+00 168.948352 1.000257e+00 168.948352 9.841529e-02 -125.695137
4.167200e+00 9.861278e-02 -126.193897 1.000247e+00 168.681983 1.000247e+00 168.681983 9.861278e-02 -126.193897
4.173000e+00 9.880961e-02 -126.692485 1.000237e+00 168.415615 1.000237e+00 168.415615 9.880961e-02 -126.692485
4.178800e+00 9.900575e-02 -127.190844 1.000226e+00 168.149305 1.000226e+00 168.149305 9.900575e-02 -127.190844
4.184600e+00 9.920112e-02 -127.689030 1.000214e+00 167.883108 1.000214e+00 167.883108 9.920112e-02 -127.689030
4.190400e+00 9.939582e-02 -128.186931 1.000203e+00 167.616855 1.000203e+00 167.616855 9.939582e-02 -128.186931
4.196200e+00 9.958975e-02 -128.684717 1.000191e+00 167.350601 1.000191e+00 167.350601 9.958975e-02 -128.684717
4.202000e+00 9.978305e-02 -129.182216 1.000180e+00 167.084463 1.000180e+00 167.084463 9.978305e-02 -129.182216
4.207800e+00 9.997560e-02 -129.679543 1.000168e+00 166.818324 1.000168e+00 166.818324 9.997560e-02 -129.679543
4.213600e+00 1.001674e-01 -130.176699 1.000155e+00 166.552185 1.000155e+00 166.552185 1.001674e-01 -130.176699
4.219400e+00 1.003586e-01 -130.673625 1.000143e+00 166.286103 1.000143e+00 166.286103 1.003586e-01 -130.673625
4.225200e+00 1.005490e-01 -131.170437 1.000132e+00 166.020079 1.000132e+00 166.020079 1.005490e-01 -131.170437
4.231000e+00 1.007387e-01 -131.667076 1.000119e+00 165.754055 1.000119e+00 165.754055 1.007387e-01 -131.667076
4.236800e+00 1.009277e-01 -132.163487 1.000108e+00 165.488088 1.000108e+00 165.488088 1.009277e-01 -132.163487
4.242600e+00 1.011159e-01 -132.659726 1.000096e+00 165.222178 1.000096e+00 165.222178 1.011159e-01 -132.659726
4.248400e+00 1.013034e-01 -133.155850 1.000084e+00 164.956268 1.000084e+00 164.956268 1.013034e-01 -133.155850
4.254200e+00 1.014901e-01 -133.651802 1.000073e+00 164.690416 1.000073e+00 164.690416 1.014901e-01 -133.651802
4.260000e+00 1.016762e-01 -134.147583 1.000061e+00 164.424563 1.000061e+00 164.424563 1.016762e-01 -134.147583
4.265800e+00 1.018616e-01 -134.643248 1.000051e+00 164.158825 1.000051e+00 164.158825 1.018616e-01 -134.643248
4.271600e+00 1.020461e-01 -135.138742 1.000040e+00 163.893030 1.000040e+00 163.893030 1.020461e-01 -135.138742
4.277400e+00 1.022300e-01 -135.634122 1.000031e+00 163.627292 1.000031e+00 163.627292 1.022300e-01 -135.634122
4.283200e+00 1.024131e-01 -136.129329 1.000021e+00 163.361555 1.000021e+00 163.361555 1.024131e-01 -136.129329
4.289000e+00 1.025955e-01 -136.624422 1.000012e+00 163.095931 1.000012e+00 163.095931 1.025955e-01 -136.624422
4.294800e+00 1.027771e-01 -137.119457 1.000003e+00 162.830251 1.000003e+00 162.830251 1.027771e-01 -137.119457
4.300600e+00 1.029580e-01 -137.614264 9.999942e-01 162.564628 9.999942e-01 162.564628 1.029580e-01 -137.614264
4.306400e+00 1.031382e-01 -138.109013 9.999870e-01 162.299062 9.999870e-01 162.299062 1.031382e-01 -138.109013
4.312200e+00 1.033176e-01 -138.603705 9.999801e-01 162.033496 9.999801e-01 162.033496 1.033176e-01 -138.603705
4.318000e+00 1.034963e-01 -139.098224 9.999729e-01 161.767873 9.999729e-01 161.767873 1.034963e-01 -139.098224
4.323800e+00 1.036742e-01 -139.592687 9.999666e-01 161.502364 9.999666e-01 161.502364 1.036742e-01 -139.592687
4.329600e+00 1.038514e-01 -140.087092 9.999618e-01 161.236798 9.999618e-01 161.236798 1.038514e-01 -140.087092
4.335400e+00 1.040278e-01 -140.581326 9.999574e-01 160.971289 9.999574e-01 160.971289 1.040278e-01 -140.581326
4.341200e+00 1.042034e-01 -141.075502 9.999532e-01 160.705781 9.999532e-01 160.705781 1.042034e-01 -141.075502
4.347000e+00 1.043784e-01 -141.569678 9.999493e-01 160.440215 9.999493e-01 160.440215 1.043784e-01 -141.569678
4.352800e+00 1.045524e-01 -142.063739 9.999466e-01 160.174706 9.999466e-01 160.174706 1.045524e-01 -142.063739
4.358600e+00 1.047258e-01 -142.557744 9.999439e-01 159.909255 9.999439e-01 159.909255 1.047258e-01 -142.557744
4.364400e+00 1.048985e-01 -143.051748 9.999419e-01 159.643689 9.999419e-01 159.643689 1.048985e-01 -143.051748
4.370200e+00 1.050703e-01 -143.545637 9.999410e-01 159.378123 9.999410e-01 159.378123 1.050703e-01 -143.545637
4.376000e+00 1.052413e-01 -144.039470 9.999401e-01 159.112614 9.999401e-01 159.112614 1.052413e-01 -144.039470
4.381800e+00 1.054116e-01 -144.533302 9.999404e-01 158.847048 9.999404e-01 158.847048 1.054116e-01 -144.533302
4.387600e+00 1.055812e-01 -145.027077 9.999410e-01 158.581482 9.999410e-01 158.581482 1.055812e-01 -145.027077
4.393400e+00 1.057499e-01 -145.520852 9.999425e-01 158.315916 9.999425e-01 158.315916 1.057499e-01 -145.520852
4.399200e+00 1.059179e-01 -146.014570 9.999434e-01 158.050293 9.999434e-01 158.050293 1.059179e-01 -146.014570
4.405000e+00 1.060850e-01 -146.508345 9.999452e-01 157.784727 9.999452e-01 157.784727 1.060850e-01 -146.508345
4.410800e+00 1.062514e-01 -147.002063 9.999482e-01 157.519104 9.999482e-01 157.519104 1.062514e-01 -147.002063
4.416600e+00 1.064171e-01 -147.495780 9.999511e-01 157.253423 9.999511e-01 157.253423 1.064171e-01 -147.495780
4.422400e+00 1.065818e-01 -147.989441 9.999541e-01 156.987743 9.999541e-01 156.987743 1.065818e-01 -147.989441
4.428200e+00 1.067458e-01 -148.483159 9.999570e-01 156.722062 9.999570e-01 156.722062 1.067458e-01 -148.483159
4.434000e+00 1.069090e-01 -148.976876 9.999611e-01 156.456267 9.999611e-01 156.456267 1.069090e-01 -148.976876
4.439800e+00 1.070715e-01 -149.470594 9.999649e-01 156.190529 9.999649e-01 156.190529 1.070715e-01 -149.470594
4.445600e+00 1.072331e-01 -149.964369 9.999691e-01 155.924734 9.999691e-01 155.924734 1.072331e-01 -149.964369
4.451400e+00 1.073938e-01 -150.458144 9.999728e-01 155.658882 9.999728e-01 155.658882 1.073938e-01 -150.458144
4.457200e+00 1.075538e-01 -150.951919 9.999775e-01 155.393030 9.999775e-01 155.393030 1.075538e-01 -150.951919
4.463000e+00 1.077129e-01 -151.445809 9.999808e-01 155.127120 9.999808e-01 155.127120 1.077129e-01 -151.445809
4.468800e+00 1.078712e-01 -151.939641 9.999851e-01 154.861210 9.999851e-01 154.861210 1.078712e-01 -151.939641
4.474600e+00 1.080287e-01 -152.433531 9.999900e-01 154.595300 9.999900e-01 154.595300 1.080287e-01 -152.433531
4.480400e+00 1.081853e-01 -152.927478 9.999935e-01 154.329333 9.999935e-01 154.329333 1.081853e-01 -152.927478
4.486200e+00 1.083412e-01 -153.421482 9.999966e-01 154.063309 9.999966e-01 154.063309 1.083412e-01 -153.421482
4.492000e+00 1.084962e-01 -153.915543 1.000000e+00 153.797342 1.000000e+00 153.797342 1.084962e-01 -153.915543
4.497800e+00 1.086502e-01 -154.409662 1.000004e+00 153.531260 1.000004e+00 153.531260 1.086502e-01 -154.409662
4.503600e+00 1.088036e-01 -154.903838 1.000007e+00 153.265179 1.000007e+00 153.265179 1.088036e-01 -154.903838
4.509400e+00 1.089560e-01 -155.398014 1.000010e+00 152.999097 1.000010e+00 152.999097 1.089560e-01 -155.398014
4.515200e+00 1.091076e-01 -155.892305 1.000012e+00 152.733016 1.000012e+00 152.733016 1.091076e-01 -155.892305
4.521000e+00 1.092582e-01 -156.386653 1.000014e+00 152.466877 1.000014e+00 152.466877 1.092582e-01 -156.386653
4.526800e+00 1.094083e-01 -156.881173 1.000015e+00 152.200681 1.000015e+00 152.200681 1.094083e-01 -156.881173
4.532600e+00 1.095568e-01 -157.375578 1.000016e+00 151.934542 1.000016e+00 151.934542 1.095568e-01 -157.375578
4.538400e+00 1.097056e-01 -157.870327 1.000016e+00 151.668345 1.000016e+00 151.668345 1.097056e-01 -157.870327
4.544200e+00 1.098530e-01 -158.364962 1.000016e+00 151.402207 1.000016e+00 151.402207 1.098530e-01 -158.364962
4.550000e+00 1.099989e-01 -158.859653 1.000016e+00 151.136010 1.000016e+00 151.136010 1.099989e-01 -158.859653
4.555800e+00 1.101445e-01 -159.354517 1.000014e+00 150.869757 1.000014e+00 150.869757 1.101445e-01 -159.354517
4.561600e+00 1.102897e-01 -159.849553 1.000013e+00 150.603618 1.000013e+00 150.603618 1.102897e-01 -159.849553
4.567400e+00 1.104328e-01 -160.344416 1.000011e+00 150.337365 1.000011e+00 150.337365 1.104328e-01 -160.344416
4.573200e+00 1.105756e-01 -160.839509 1.000008e+00 150.071226 1.000008e+00 150.071226 1.105756e-01 -160.839509
4.579000e+00 1.107182e-01 -161.334831 1.000004e+00 149.805029 1.000004e+00 149.805029 1.107182e-01 -161.334831
4.584800e+00 1.108589e-01 -161.830096 9.999999e-01 149.538833 9.999999e-01 149.538833 1.108589e-01 -161.830096
4.590600e+00 1.109995e-01 -162.325532 9.999953e-01 149.272694 9.999953e-01 149.272694 1.109995e-01 -162.325532
4.596400e+00 1.111392e-01 -162.821141 9.999904e-01 149.006555 9.999904e-01 149.006555 1.111392e-01 -162.821141
4.602200e+00 1.112771e-01 -163.316635 9.999845e-01 148.740417 9.999845e-01 148.740417 1.112771e-01 -163.316635
4.608000e+00 1.114151e-01 -163.812415 9.999786e-01 148.474335 9.999786e-01 148.474335 1.114151e-01 -163.812415
4.613800e+00 1.115524e-01 -164.308367 9.999719e-01 148.208311 9.999719e-01 148.208311 1.115524e-01 -164.308367
4.619600e+00 1.116880e-01 -164.804320 9.999642e-01 147.942229 9.999642e-01 147.942229 1.116880e-01 -164.804320
4.625400e+00 1.118230e-01 -165.300387 9.999572e-01 147.676262 9.999572e-01 147.676262 1.118230e-01 -165.300387
4.631200e+00 1.119574e-01 -165.796683 9.999494e-01 147.410238 9.999494e-01 147.410238 1.119574e-01 -165.796683
4.637000e+00 1.120903e-01 -166.292921 9.999409e-01 147.144328 9.999409e-01 147.144328 1.120903e-01 -166.292921
4.642800e+00 1.122228e-01 -166.789389 9.999324e-01 146.878361 9.999324e-01 146.878361 1.122228e-01 -166.789389
4.648600e+00 1.123539e-01 -167.285914 9.999232e-01 146.612509 9.999232e-01 146.612509 1.123539e-01 -167.285914
4.654400e+00 1.124846e-01 -167.782612 9.999139e-01 146.346656 9.999139e-01 146.346656 1.124846e-01 -167.782612
4.660200e+00 1.126150e-01 -168.279595 9.999047e-01 146.080861 9.999047e-01 146.080861 1.126150e-01 -168.279595
4.666000e+00 1.127432e-01 -168.776464 9.998958e-01 145.815181 9.998958e-01 145.815181 1.127432e-01 -168.776464
4.671800e+00 1.128712e-01 -169.273620 9.998866e-01 145.549443 9.998866e-01 145.549443 1.128712e-01 -169.273620
4.677600e+00 1.129991e-01 -169.770890 9.998768e-01 145.283705 9.998768e-01 145.283705 1.129991e-01 -169.770890
4.683400e+00 1.131249e-01 -170.268274 9.998674e-01 145.018139 9.998674e-01 145.018139 1.131249e-01 -170.268274
4.689200e+00 1.132506e-01 -170.765831 9.998578e-01 144.752516 9.998578e-01 144.752516 1.132506e-01 -170.765831
4.695000e+00 1.133755e-01 -171.263502 9.998492e-01 144.487007 9.998492e-01 144.487007 1.133755e-01 -171.263502
4.700800e+00 1.134983e-01 -171.761288 9.998406e-01 144.221498 9.998406e-01 144.221498 1.134983e-01 -171.761288
4.706600e+00 1.136213e-01 -172.259360 9.998321e-01 143.956047 9.998321e-01 143.956047 1.136213e-01 -172.259360
4.712400e+00 1.137435e-01 -172.757490 9.998236e-01 143.690596 9.998236e-01 143.690596 1.137435e-01 -172.757490
4.718200e+00 1.138649e-01 -173.255791 9.998155e-01 143.425259 9.998155e-01 143.425259 1.138649e-01 -173.255791
4.724000e+00 1.139846e-01 -173.754207 9.998087e-01 143.159922 9.998087e-01 143.159922 1.139846e-01 -173.754207
4.729800e+00 1.141045e-01 -174.252909 9.998020e-01 142.894585 9.998020e-01 142.894585 1.141045e-01 -174.252909
4.735600e+00 1.142229e-01 -174.751669 9.997956e-01 142.629306 9.997956e-01 142.629306 1.142229e-01 -174.751669
4.741400e+00 1.143406e-01 -175.250601 9.997892e-01 142.364084 9.997892e-01 142.364084 1.143406e-01 -175.250601
4.747200e+00 1.144578e-01 -175.749762 9.997843e-01 142.098862 9.997843e-01 142.098862 1.144578e-01 -175.749762
4.753000e+00 1.145734e-01 -176.249037 9.997795e-01 141.833697 9.997795e-01 141.833697 1.145734e-01 -176.249037
4.758800e+00 1.146886e-01 -176.748542 9.997763e-01 141.568532 9.997763e-01 141.568532 1.146886e-01 -176.748542
4.764600e+00 1.148034e-01 -177.248161 9.997725e-01 141.303424 9.997725e-01 141.303424 1.148034e-01 -177.248161
4.770400e+00 1.149168e-01 -177.748009 9.997708e-01 141.038260 9.997708e-01 141.038260 1.149168e-01 -177.748009
4.776200e+00 1.150298e-01 -178.248087 9.997686e-01 140.773152 9.997686e-01 140.773152 1.150298e-01 -178.248087
4.782000e+00 1.151415e-01 -178.748279 9.997679e-01 140.508044 9.997679e-01 140.508044 1.151415e-01 -178.748279
4.787800e+00 1.152529e-01 -179.248700 9.997674e-01 140.242994 9.997674e-01 140.242994 1.152529e-01 -179.248700
4.793600e+00 1.153631e-01 -179.749294 9.997690e-01 139.977944 9.997690e-01 139.977944 1.153631e-01 -179.749294
4.799400e+00 1.154721e-01 179.749866 9.997701e-01 139.712836 9.997701e-01 139.712836 1.154721e-01 179.749866
4.805200e+00 1.155809e-01 179.248872 9.997726e-01 139.447786 9.997726e-01 139.447786 1.155809e-01 179.248872
4.811000e+00 1.156886e-01 178.747706 9.997761e-01 139.182736 9.997761e-01 139.182736 1.156886e-01 178.747706
4.816800e+00 1.157952e-01 178.246253 9.997803e-01 138.917628 9.997803e-01 138.917628 1.157952e-01 178.246253
4.822600e+00 1.159018e-01 177.744629 9.997854e-01 138.652521 9.997854e-01 138.652521 1.159018e-01 177.744629
4.828400e+00 1.160073e-01 177.242775 9.997906e-01 138.387470 9.997906e-01 138.387470 1.160073e-01 177.242775
4.834200e+00 1.161118e-01 176.740749 9.997966e-01 138.122305 9.997966e-01 138.122305 1.161118e-01 176.740749
4.840000e+00 1.162154e-01 176.238495 9.998042e-01 137.857141 9.998042e-01 137.857141 1.162154e-01 176.238495
4.845800e+00 1.163190e-01 175.736011 9.998119e-01 137.591976 9.998119e-01 137.591976 1.163190e-01 175.736011
4.851600e+00 1.164207e-01 175.233297 9.998212e-01 137.326754 9.998212e-01 137.326754 1.164207e-01 175.233297
4.857400e+00 1.165215e-01 174.730298 9.998293e-01 137.061531 9.998293e-01 137.061531 1.165215e-01 174.730298
4.863200e+00 1.166224e-01 174.227184 9.998397e-01 136.796252 9.998397e-01 136.796252 1.166224e-01 174.227184
4.869000e+00 1.167226e-01 173.723783 9.998495e-01 136.530972 9.998495e-01 136.530972 1.167226e-01 173.723783
4.874800e+00 1.168209e-01 173.220153 9.998603e-01 136.265636 9.998603e-01 136.265636 1.168209e-01 173.220153
4.880600e+00 1.169195e-01 172.716294 9.998720e-01 136.000299 9.998720e-01 136.000299 1.169195e-01 172.716294
4.886400e+00 1.170173e-01 172.212263 9.998831e-01 135.734848 9.998831e-01 135.734848 1.170173e-01 172.212263
4.892200e+00 1.171134e-01 171.707831 9.998953e-01 135.469396 9.998953e-01 135.469396 1.171134e-01 171.707831
4.898000e+00 1.172097e-01 171.203342 9.999076e-01 135.203888 9.999076e-01 135.203888 1.172097e-01 171.203342
4.903800e+00 1.173044e-01 170.698451 9.999196e-01 134.938379 9.999196e-01 134.938379 1.173044e-01 170.698451
4.909600e+00 1.173984e-01 170.193389 9.999318e-01 134.672756 9.999318e-01 134.672756 1.173984e-01 170.193389
4.915400e+00 1.174918e-01 169.688040 9.999449e-01 134.407132 9.999449e-01 134.407132 1.174918e-01 169.688040
4.921200e+00 1.175845e-01 169.182462 9.999577e-01 134.141452 9.999577e-01 134.141452 1.175845e-01 169.182462
4.927000e+00 1.176766e-01 168.676712 9.999701e-01 133.875771 9.999701e-01 133.875771 1.176766e-01 168.676712
4.932800e+00 1.177681e-01 168.170619 9.999827e-01 133.609976 9.999827e-01 133.609976 1.177681e-01 168.170619
4.938600e+00 1.178580e-01 167.664296 9.999950e-01 133.344181 9.999950e-01 133.344181 1.178580e-01 167.664296
4.944400e+00 1.179474e-01 167.157687 1.000007e+00 133.078329 1.000007e+00 133.078329 1.179474e-01 167.157687
4.950200e+00 1.180362e-01 166.650791 1.000018e+00 132.812419 1.000018e+00 132.812419 1.180362e-01 166.650791
4.956000e+00 1.181245e-01 166.143723 1.000030e+00 132.546509 1.000030e+00 132.546509 1.181245e-01 166.143723
4.961800e+00 1.182122e-01 165.636426 1.000041e+00 132.280542 1.000041e+00 132.280542 1.182122e-01 165.636426
4.967600e+00 1.182984e-01 165.128786 1.000052e+00 132.014518 1.000052e+00 132.014518 1.182984e-01 165.128786
4.973400e+00 1.183841e-01 164.620916 1.000062e+00 131.748494 1.000062e+00 131.748494 1.183841e-01 164.620916
4.979200e+00 1.184693e-01 164.112760 1.000072e+00 131.482412 1.000072e+00 131.482412 1.184693e-01 164.112760
4.985000e+00 1.185539e-01 163.604374 1.000081e+00 131.216331 1.000081e+00 131.216331 1.185539e-01 163.604374
4.990800e+00 1.186371e-01 163.095645 1.000089e+00 130.950192 1.000089e+00 130.950192 1.186371e-01 163.095645
4.996600e+00 1.187208e-01 162.586801 1.000098e+00 130.684053 1.000098e+00 130.684053 1.187208e-01 162.586801
5.002400e+00 1.188021e-01 162.077442 1.000104e+00 130.417914 1.000104e+00 130.417914 1.188021e-01 162.077442
5.008200e+00 1.188838e-01 161.568025 1.000110e+00 130.151718 1.000110e+00 130.151718 1.188838e-01 161.568025
5.014000e+00 1.189650e-01 161.058322 1.000117e+00 129.885521 1.000117e+00 129.885521 1.189650e-01 161.058322
5.019800e+00 1.190448e-01 160.548275 1.000121e+00 129.619325 1.000121e+00 129.619325 1.190448e-01 160.548275
5.025600e+00 1.191241e-01 160.037998 1.000126e+00 129.353129 1.000126e+00 129.353129 1.191241e-01 160.037998
5.031400e+00 1.192020e-01 159.527264 1.000129e+00 129.086876 1.000129e+00 129.086876 1.192020e-01 159.527264
5.037200e+00 1.192803e-01 159.016472 1.000132e+00 128.820737 1.000132e+00 128.820737 1.192803e-01 159.016472
5.043000e+00 1.193571e-01 158.505279 1.000135e+00 128.554540 1.000135e+00 128.554540 1.193571e-01 158.505279
5.048800e+00 1.194335e-01 157.993857 1.000136e+00 128.288344 1.000136e+00 128.288344 1.194335e-01 157.993857
5.054600e+00 1.195093e-01 157.482148 1.000137e+00 128.022205 1.000137e+00 128.022205 1.195093e-01 157.482148
5.060400e+00 1.195847e-01 156.970268 1.000136e+00 127.756009 1.000136e+00 127.756009 1.195847e-01 156.970268
5.066200e+00 1.196586e-01 156.457814 1.000137e+00 127.489928 1.000137e+00 127.489928 1.196586e-01 156.457814
5.072000e+00 1.197329e-01 155.945361 1.000136e+00 127.223789 1.000136e+00 127.223789 1.197329e-01 155.945361
5.077800e+00 1.198057e-01 155.432506 1.000134e+00 126.957707 1.000134e+00 126.957707 1.198057e-01 155.432506
5.083600e+00 1.198780e-01 154.919365 1.000131e+00 126.691683 1.000131e+00 126.691683 1.198780e-01 154.919365
5.089400e+00 1.199498e-01 154.405938 1.000129e+00 126.425601 1.000129e+00 126.425601 1.199498e-01 154.405938
5.095200e+00 1.200210e-01 153.892224 1.000125e+00 126.159634 1.000125e+00 126.159634 1.200210e-01 153.892224
5.101000e+00 1.200916e-01 153.378223 1.000122e+00 125.893724 1.000122e+00 125.893724 1.200916e-01 153.378223
5.106800e+00 1.201617e-01 152.863937 1.000119e+00 125.627757 1.000119e+00 125.627757 1.201617e-01 152.863937
5.112600e+00 1.202302e-01 152.349191 1.000115e+00 125.361962 1.000115e+00 125.361962 1.202302e-01 152.349191
5.118400e+00 1.202991e-01 151.834274 1.000110e+00 125.096110 1.000110e+00 125.096110 1.202991e-01 151.834274
5.124200e+00 1.203673e-01 151.319128 1.000106e+00 124.830315 1.000106e+00 124.830315 1.203673e-01 151.319128
5.130000e+00 1.204349e-01 150.803638 1.000101e+00 124.564577 1.000101e+00 124.564577 1.204349e-01 150.803638
5.135800e+00 1.205010e-01 150.287575 1.000097e+00 124.298896 1.000097e+00 124.298896 1.205010e-01 150.287575
5.141600e+00 1.205672e-01 149.771454 1.000093e+00 124.033273 1.000093e+00 124.033273 1.205672e-01 149.771454
5.147400e+00 1.206328e-01 149.254990 1.000088e+00 123.767650 1.000088e+00 123.767650 1.206328e-01 149.254990
5.153200e+00 1.206978e-01 148.738182 1.000085e+00 123.502084 1.000085e+00 123.502084 1.206978e-01 148.738182
5.159000e+00 1.207628e-01 148.221260 1.000082e+00 123.236575 1.000082e+00 123.236575 1.207628e-01 148.221260
5.164800e+00 1.208263e-01 147.703707 1.000078e+00 122.971067 1.000078e+00 122.971067 1.208263e-01 147.703707
5.170600e+00 1.208899e-01 147.186039 1.000075e+00 122.705673 1.000075e+00 122.705673 1.208899e-01 147.186039
5.176400e+00 1.209527e-01 146.667971 1.000073e+00 122.440221 1.000073e+00 122.440221 1.209527e-01 146.667971
5.182200e+00 1.210148e-01 146.149501 1.000071e+00 122.174885 1.000071e+00 122.174885 1.210148e-01 146.149501
5.188000e+00 1.210761e-01 145.630688 1.000070e+00 121.909548 1.000070e+00 121.909548 1.210761e-01 145.630688
5.193800e+00 1.211372e-01 145.111588 1.000070e+00 121.644326 1.000070e+00 121.644326 1.211372e-01 145.111588
5.199600e+00 1.211976e-01 144.592145 1.000070e+00 121.379046 1.000070e+00 121.379046 1.211976e-01 144.592145
5.205400e+00 1.212577e-01 144.072300 1.000071e+00 121.113824 1.000071e+00 121.113824 1.212577e-01 144.072300
5.211200e+00 1.213171e-01 143.552226 1.000073e+00 120.848545 1.000073e+00 120.848545 1.213171e-01 143.552226
5.217000e+00 1.213760e-01 143.031752 1.000075e+00 120.583380 1.000075e+00 120.583380 1.213760e-01 143.031752
5.222800e+00 1.214345e-01 142.510876 1.000079e+00 120.318215 1.000079e+00 120.318215 1.214345e-01 142.510876
5.228600e+00 1.214923e-01 141.989713 1.000083e+00 120.053107 1.000083e+00 120.053107 1.214923e-01 141.989713
5.234400e+00 1.215497e-01 141.468150 1.000089e+00 119.787942 1.000089e+00 119.787942 1.215497e-01 141.468150
5.240200e+00 1.216065e-01 140.946243 1.000096e+00 119.522778 1.000096e+00 119.522778 1.216065e-01 140.946243
5.246000e+00 1.216629e-01 140.423991 1.000103e+00 119.257613 1.000103e+00 119.257613 1.216629e-01 140.423991
5.251800e+00 1.217186e-01 139.901339 1.000112e+00 118.992505 1.000112e+00 118.992505 1.217186e-01 139.901339
5.257600e+00 1.217740e-01 139.378286 1.000122e+00 118.727283 1.000122e+00 118.727283 1.217740e-01 139.378286
5.263400e+00 1.218288e-01 138.854947 1.000132e+00 118.462175 1.000132e+00 118.462175 1.218288e-01 138.854947
5.269200e+00 1.218830e-01 138.331149 1.000144e+00 118.196953 1.000144e+00 118.196953 1.218830e-01 138.331149
5.275000e+00 1.219368e-01 137.807007 1.000157e+00 117.931674 1.000157e+00 117.931674 1.219368e-01 137.807007
5.280800e+00 1.219902e-01 137.282521 1.000170e+00 117.666509 1.000170e+00 117.666509 1.219902e-01 137.282521
5.286600e+00 1.220430e-01 136.757635 1.000185e+00 117.401172 1.000185e+00 117.401172 1.220430e-01 136.757635
5.292400e+00 1.220953e-01 136.232347 1.000200e+00 117.135893 1.000200e+00 117.135893 1.220953e-01 136.232347
5.298200e+00 1.221471e-01 135.706658 1.000216e+00 116.870556 1.000216e+00 116.870556 1.221471e-01 135.706658
5.304000e+00 1.221984e-01 135.180568 1.000234e+00 116.605162 1.000234e+00 116.605162 1.221984e-01 135.180568
5.309800e+00 1.222493e-01 134.654135 1.000252e+00 116.339711 1.000252e+00 116.339711 1.222493e-01 134.654135
5.315600e+00 1.222996e-01 134.127300 1.000270e+00 116.074259 1.000270e+00 116.074259 1.222996e-01 134.127300
5.321400e+00 1.223494e-01 133.600007 1.000290e+00 115.808636 1.000290e+00 115.808636 1.223494e-01 133.600007
5.327200e+00 1.223989e-01 133.072427 1.000310e+00 115.543070 1.000310e+00 115.543070 1.223989e-01 133.072427
5.333000e+00 1.224478e-01 132.544389 1.000330e+00 115.277390 1.000330e+00 115.277390 1.224478e-01 132.544389
5.338800e+00 1.224961e-01 132.015893 1.000352e+00 115.011709 1.000352e+00 115.011709 1.224961e-01 132.015893
5.344600e+00 1.225440e-01 131.487110 1.000373e+00 114.745914 1.000373e+00 114.745914 1.225440e-01 131.487110
5.350400e+00 1.225915e-01 130.957869 1.000395e+00 114.480061 1.000395e+00 114.480061 1.225915e-01 130.957869
5.356200e+00 1.226384e-01 130.428227 1.000417e+00 114.214152 1.000417e+00 114.214152 1.226384e-01 130.428227
5.362000e+00 1.226849e-01 129.898241 1.000440e+00 113.948127 1.000440e+00 113.948127 1.226849e-01 129.898241
5.367800e+00 1.227309e-01 129.367797 1.000462e+00 113.682103 1.000462e+00 113.682103 1.227309e-01 129.367797
5.373600e+00 1.227764e-01 128.836951 1.000484e+00 113.415964 1.000484e+00 113.415964 1.227764e-01 128.836951
5.379400e+00 1.228215e-01 128.305705 1.000506e+00 113.149768 1.000506e+00 113.149768 1.228215e-01 128.305705
5.385200e+00 1.228661e-01 127.774115 1.000529e+00 112.883457 1.000529e+00 112.883457 1.228661e-01 127.774115
5.391000e+00 1.229102e-01 127.242009 1.000550e+00 112.617146 1.000550e+00 112.617146 1.229102e-01 127.242009
5.396800e+00 1.229539e-01 126.709616 1.000572e+00 112.350778 1.000572e+00 112.350778 1.229539e-01 126.709616
5.402600e+00 1.229971e-01 126.176766 1.000594e+00 112.084238 1.000594e+00 112.084238 1.229971e-01 126.176766
5.408400e+00 1.230398e-01 125.643514 1.000614e+00 111.817756 1.000614e+00 111.817756 1.230398e-01 125.643514
5.414200e+00 1.230818e-01 125.109976 1.000634e+00 111.551158 1.000634e+00 111.551158 1.230818e-01 125.109976
5.420000e+00 1.231237e-01 124.575922 1.000654e+00 111.284504 1.000654e+00 111.284504 1.231237e-01 124.575922
5.425800e+00 1.231655e-01 124.041409 1.000673e+00 111.017849 1.000673e+00 111.017849 1.231655e-01 124.041409
5.431600e+00 1.232061e-01 123.506610 1.000691e+00 110.751023 1.000691e+00 110.751023 1.232061e-01 123.506610
5.437400e+00 1.232468e-01 122.971353 1.000708e+00 110.484254 1.000708e+00 110.484254 1.232468e-01 122.971353
5.443200e+00 1.232866e-01 122.435810 1.000726e+00 110.217427 1.000726e+00 110.217427 1.232866e-01 122.435810
5.449000e+00 1.233265e-01 121.899693 1.000741e+00 109.950486 1.000741e+00 109.950486 1.233265e-01 121.899693
5.454800e+00 1.233656e-01 121.363290 1.000756e+00 109.683603 1.000756e+00 109.683603 1.233656e-01 121.363290
5.460600e+00 1.234051e-01 120.826257 1.000769e+00 109.416604 1.000769e+00 109.416604 1.234051e-01 120.826257
5.466400e+00 1.234432e-01 120.289223 1.000782e+00 109.149606 1.000782e+00 109.149606 1.234432e-01 120.289223
5.472200e+00 1.234816e-01 119.751445 1.000794e+00 108.882608 1.000794e+00 108.882608 1.234816e-01 119.751445
5.478000e+00 1.235188e-01 119.213610 1.000804e+00 108.615552 1.000804e+00 108.615552 1.235188e-01 119.213610
5.483800e+00 1.235566e-01 118.675087 1.000814e+00 108.348496 1.000814e+00 108.348496 1.235566e-01 118.675087
5.489600e+00 1.235933e-01 118.136334 1.000822e+00 108.081441 1.000822e+00 108.081441 1.235933e-01 118.136334
5.495400e+00 1.236298e-01 117.597124 1.000830e+00 107.814385 1.000830e+00 107.814385 1.236298e-01 117.597124
5.501200e+00 1.236662e-01 117.057512 1.000836e+00 107.547272 1.000836e+00 107.547272 1.236662e-01 117.057512
5.507000e+00 1.237018e-01 116.517614 1.000842e+00 107.280216 1.000842e+00 107.280216 1.237018e-01 116.517614
5.512800e+00 1.237374e-01 115.977200 1.000846e+00 107.013161 1.000846e+00 107.013161 1.237374e-01 115.977200
5.518600e+00 1.237732e-01 115.436328 1.000849e+00 106.746105 1.000849e+00 106.746105 1.237732e-01 115.436328
5.524400e+00 1.238083e-01 114.895112 1.000852e+00 106.479107 1.000852e+00 106.479107 1.238083e-01 114.895112
5.530200e+00 1.238429e-01 114.353667 1.000853e+00 106.212109 1.000853e+00 106.212109 1.238429e-01 114.353667
5.536000e+00 1.238768e-01 113.811763 1.000854e+00 105.945110 1.000854e+00 105.945110 1.238768e-01 113.811763
5.541800e+00 1.239112e-01 113.269402 1.000853e+00 105.678226 1.000853e+00 105.678226 1.239112e-01 113.269402
5.547600e+00 1.239453e-01 112.726581 1.000852e+00 105.411343 1.000852e+00 105.411343 1.239453e-01 112.726581
5.553400e+00 1.239790e-01 112.183475 1.000850e+00 105.144402 1.000850e+00 105.144402 1.239790e-01 112.183475
5.559200e+00 1.240124e-01 111.639910 1.000848e+00 104.877633 1.000848e+00 104.877633 1.240124e-01 111.639910
5.565000e+00 1.240457e-01 111.095944 1.000845e+00 104.610806 1.000845e+00 104.610806 1.240457e-01 111.095944
5.570800e+00 1.240779e-01 110.551748 1.000841e+00 104.344094 1.000841e+00 104.344094 1.240779e-01 110.551748
5.576600e+00 1.241110e-01 110.006980 1.000837e+00 104.077440 1.000837e+00 104.077440 1.241110e-01 110.006980
5.582400e+00 1.241431e-01 109.461925 1.000833e+00 103.810785 1.000833e+00 103.810785 1.241431e-01 109.461925
5.588200e+00 1.241763e-01 108.916183 1.000829e+00 103.544245 1.000829e+00 103.544245 1.241763e-01 108.916183
5.594000e+00 1.242078e-01 108.370441 1.000824e+00 103.277705 1.000824e+00 103.277705 1.242078e-01 108.370441
5.599800e+00 1.242404e-01 107.823953 1.000819e+00 103.011280 1.000819e+00 103.011280 1.242404e-01 107.823953
5.605600e+00 1.242723e-01 107.277180 1.000815e+00 102.744797 1.000815e+00 102.744797 1.242723e-01 107.277180
5.611400e+00 1.243045e-01 106.729948 1.000811e+00 102.478486 1.000811e+00 102.478486 1.243045e-01 106.729948
5.617200e+00 1.243362e-01 106.182315 1.000806e+00 102.212176 1.000806e+00 102.212176 1.243362e-01 106.182315
5.623000e+00 1.243675e-01 105.634338 1.000803e+00 101.945865 1.000803e+00 101.945865 1.243675e-01 105.634338
5.628800e+00 1.243992e-01 105.085845 1.000799e+00 101.679669 1.000799e+00 101.679669 1.243992e-01 105.085845
5.634600e+00 1.244305e-01 104.537009 1.000796e+00 101.413587 1.000796e+00 101.413587 1.244305e-01 104.537009
5.640400e+00 1.244616e-01 103.987715 1.000794e+00 101.147448 1.000794e+00 101.147448 1.244616e-01 103.987715
5.646200e+00 1.244933e-01 103.437904 1.000792e+00 100.881367 1.000792e+00 100.881367 1.244933e-01 103.437904
5.652000e+00 1.245249e-01 102.887693 1.000791e+00 100.615400 1.000791e+00 100.615400 1.245249e-01 102.887693
5.657800e+00 1.245563e-01 102.337080 1.000791e+00 100.349433 1.000791e+00 100.349433 1.245563e-01 102.337080
5.663600e+00 1.245876e-01 101.785952 1.000791e+00 100.083466 1.000791e+00 100.083466 1.245876e-01 101.785952
5.669400e+00 1.246179e-01 101.234538 1.000793e+00 99.817556 1.000793e+00 99.817556 1.246179e-01 101.234538
5.675200e+00 1.246493e-01 100.682550 1.000796e+00 99.551646 1.000796e+00 99.551646 1.246493e-01 100.682550
5.681000e+00 1.246807e-01 100.130162 1.000800e+00 99.285794 1.000800e+00 99.285794 1.246807e-01 100.130162
5.686800e+00 1.247122e-01 99.577200 1.000804e+00 99.019999 1.000804e+00 99.019999 1.247122e-01 99.577200
5.692600e+00 1.247429e-01 99.023895 1.000811e+00 98.754146 1.000811e+00 98.754146 1.247429e-01 99.023895
5.698400e+00 1.247749e-01 98.470074 1.000818e+00 98.488294 1.000818e+00 98.488294 1.247749e-01 98.470074
5.704200e+00 1.248062e-01 97.915794 1.000826e+00 98.222441 1.000826e+00 98.222441 1.248062e-01 97.915794
5.710000e+00 1.248378e-01 97.360999 1.000835e+00 97.956646 1.000835e+00 97.956646 1.248378e-01 97.360999
5.715800e+00 1.248689e-01 96.805860 1.000846e+00 97.690794 1.000846e+00 97.690794 1.248689e-01 96.805860
5.721600e+00 1.249004e-01 96.250149 1.000858e+00 97.424941 1.000858e+00 97.424941 1.249004e-01 96.250149
5.727400e+00 1.249324e-01 95.693921 1.000871e+00 97.159089 1.000871e+00 97.159089 1.249324e-01 95.693921
5.733200e+00 1.249640e-01 95.137293 1.000886e+00 96.893122 1.000886e+00 96.893122 1.249640e-01 95.137293
5.739000e+00 1.249952e-01 94.580206 1.000901e+00 96.627212 1.000901e+00 96.627212 1.249952e-01 94.580206
5.744800e+00 1.250270e-01 94.022546 1.000918e+00 96.361245 1.000918e+00 96.361245 1.250270e-01 94.022546
5.750600e+00 1.250585e-01 93.464485 1.000935e+00 96.095221 1.000935e+00 96.095221 1.250585e-01 93.464485
5.756400e+00 1.250908e-01 92.905851 1.000955e+00 95.829139 1.000955e+00 95.829139 1.250908e-01 92.905851
5.762200e+00 1.251229e-01 92.346816 1.000974e+00 95.563058 1.000974e+00 95.563058 1.251229e-01 92.346816
5.768000e+00 1.251549e-01 91.787209 1.000995e+00 95.296862 1.000995e+00 95.296862 1.251549e-01 91.787209
5.773800e+00 1.251877e-01 91.227142 1.001017e+00 95.030608 1.001017e+00 95.030608 1.251877e-01 91.227142
5.779600e+00 1.252205e-01 90.666560 1.001040e+00 94.764297 1.001040e+00 94.764297 1.252205e-01 90.666560
5.785400e+00 1.252522e-01 90.105520 1.001063e+00 94.497929 1.001063e+00 94.497929 1.252522e-01 90.105520
5.791200e+00 1.252850e-01 89.543964 1.001087e+00 94.231504 1.001087e+00 94.231504 1.252850e-01 89.543964
5.797000e+00 1.253178e-01 88.981950 1.001111e+00 93.964964 1.001111e+00 93.964964 1.253178e-01 88.981950
5.802800e+00 1.253507e-01 88.419420 1.001137e+00 93.698367 1.001137e+00 93.698367 1.253507e-01 88.419420
5.808600e+00 1.253847e-01 87.856374 1.001162e+00 93.431712 1.001162e+00 93.431712 1.253847e-01 87.856374
5.814400e+00 1.254180e-01 87.292870 1.001188e+00 93.164943 1.001188e+00 93.164943 1.254180e-01 87.292870
5.820200e+00 1.254514e-01 86.728851 1.001214e+00 92.898116 1.001214e+00 92.898116 1.254514e-01 86.728851
5.826000e+00 1.254851e-01 86.164373 1.001236e+00 92.631175 1.001236e+00 92.631175 1.254851e-01 86.164373
5.831800e+00 1.255180e-01 85.599322 1.001262e+00 92.364177 1.001262e+00 92.364177 1.255180e-01 85.599322
5.837600e+00 1.255523e-01 85.033870 1.001291e+00 92.097064 1.001291e+00 92.097064 1.255523e-01 85.033870
5.843400e+00 1.255869e-01 84.467902 1.001321e+00 91.829894 1.001321e+00 91.829894 1.255869e-01 84.467902
5.849200e+00 1.256209e-01 83.901476 1.001342e+00 91.562609 1.001342e+00 91.562609 1.256209e-01 83.901476
5.855000e+00 1.256553e-01 83.334534 1.001366e+00 91.295267 1.001366e+00 91.295267 1.256553e-01 83.334534
5.860800e+00 1.256902e-01 82.767077 1.001391e+00 91.027868 1.001391e+00 91.027868 1.256902e-01 82.767077
5.866600e+00 1.257255e-01 82.199218 1.001418e+00 90.760354 1.001418e+00 90.760354 1.257255e-01 82.199218
5.872400e+00 1.257612e-01 81.630901 1.001437e+00 90.492782 1.001437e+00 90.492782 1.257612e-01 81.630901
5.878200e+00 1.257965e-01 81.062069 1.001458e+00 90.225154 1.001458e+00 90.225154 1.257965e-01 81.062069
5.884000e+00 1.258323e-01 80.492778 1.001480e+00 89.957411 1.001480e+00 89.957411 1.258323e-01 80.492778
5.889800e+00 1.258687e-01 79.923029 1.001495e+00 89.689667 1.001495e+00 89.689667 1.258687e-01 79.923029
5.895600e+00 1.259047e-01 79.352764 1.001521e+00 89.421867 1.001521e+00 89.421867 1.259047e-01 79.352764
5.901400e+00 1.259412e-01 78.782041 1.001539e+00 89.153952 1.001539e+00 89.153952 1.259412e-01 78.782041
5.907200e+00 1.259783e-01 78.210974 1.001549e+00 88.886037 1.001549e+00 88.886037 1.259783e-01 78.210974
5.913000e+00 1.260161e-01 77.639391 1.001571e+00 88.618122 1.001571e+00 88.618122 1.260161e-01 77.639391
5.918800e+00 1.260535e-01 77.067350 1.001585e+00 88.350092 1.001585e+00 88.350092 1.260535e-01 77.067350
5.924600e+00 1.260916e-01 76.494850 1.001591e+00 88.082120 1.001591e+00 88.082120 1.260916e-01 76.494850
5.930400e+00 1.261303e-01 75.921950 1.001609e+00 87.814090 1.001609e+00 87.814090 1.261303e-01 75.921950
5.936200e+00 1.261697e-01 75.348648 1.001619e+00 87.546003 1.001619e+00 87.546003 1.261697e-01 75.348648
5.942000e+00 1.262088e-01 74.774831 1.001620e+00 87.277973 1.001620e+00 87.277973 1.262088e-01 74.774831
5.947800e+00 1.262486e-01 74.200613 1.001634e+00 87.009944 1.001634e+00 87.009944 1.262486e-01 74.200613
5.953600e+00 1.262890e-01 73.625993 1.001639e+00 86.741857 1.001639e+00 86.741857 1.262890e-01 73.625993
5.959400e+00 1.263293e-01 73.050801 1.001639e+00 86.473827 1.001639e+00 86.473827 1.263293e-01 73.050801
5.965200e+00 1.263712e-01 72.475380 1.001642e+00 86.205855 1.001642e+00 86.205855 1.263712e-01 72.475380
5.971000e+00 1.264128e-01 71.899442 1.001643e+00 85.937825 1.001643e+00 85.937825 1.264128e-01 71.899442
5.976800e+00 1.264552e-01 71.323104 1.001644e+00 85.669910 1.001644e+00 85.669910 1.264552e-01 71.323104
5.982600e+00 1.264983e-01 70.746365 1.001643e+00 85.401995 1.001643e+00 85.401995 1.264983e-01 70.746365
5.988400e+00 1.265412e-01 70.169110 1.001640e+00 85.134137 1.001640e+00 85.134137 1.265412e-01 70.169110
5.994200e+00 1.265857e-01 69.591568 1.001637e+00 84.866337 1.001637e+00 84.866337 1.265857e-01 69.591568
6.000000e+00 1.266300e-01 69.013511 1.001633e+00 84.598594 1.001633e+00 84.598594 1.266300e-01 69.013511
