! Touchstone file converted from gerber2ems Port_0_data.csv
! Assumption: Channel is reciprocal and symmetric (S11=S22, S21=S12)
# GHz S MA R 50.0
0.000000e+00 2.521650e-01 0.000000 9.431592e-01 48.363442 9.431592e-01 48.363442 2.521650e-01 0.000000
1.000000e-02 3.443710e-02 -70.945296 1.003751e+00 2.481344 1.003751e+00 2.481344 3.443710e-02 -70.945296
2.000000e-02 1.811137e-02 -64.723146 1.001174e+00 0.474184 1.001174e+00 0.474184 1.811137e-02 -64.723146
3.000000e-02 1.287552e-02 -56.766109 1.000643e+00 -0.531897 1.000643e+00 -0.531897 1.287552e-02 -56.766109
4.000000e-02 1.042024e-02 -49.241597 1.000413e+00 -1.288571 1.000413e+00 -1.288571 1.042024e-02 -49.241597
5.000000e-02 9.049151e-03 -42.527678 1.000261e+00 -1.945281 1.000261e+00 -1.945281 9.049151e-03 -42.527678
6.000000e-02 8.197333e-03 -36.631318 1.000132e+00 -2.551711 1.000132e+00 -2.551711 8.197333e-03 -36.631318
7.000000e-02 7.626201e-03 -31.450146 1.000006e+00 -3.129084 1.000006e+00 -3.129084 7.626201e-03 -31.450146
8.000000e-02 7.219736e-03 -26.857746 9.998786e-01 -3.687977 9.998786e-01 -3.687977 7.219736e-03 -26.857746
9.000000e-02 6.915991e-03 -22.734644 9.997478e-01 -4.234231 9.997478e-01 -4.234231 6.915991e-03 -22.734644
1.000000e-01 6.679673e-03 -18.978241 9.996121e-01 -4.771345 9.996121e-01 -4.771345 6.679673e-03 -18.978241
1.100000e-01 6.489690e-03 -15.503717 9.994735e-01 -5.301534 9.994735e-01 -5.301534 6.489690e-03 -15.503717
1.200000e-01 6.333066e-03 -12.242269 9.993333e-01 -5.826282 9.993333e-01 -5.826282 6.333066e-03 -12.242269
1.300000e-01 6.201607e-03 -9.139175 9.991926e-01 -6.346573 9.991926e-01 -6.346573 6.201607e-03 -9.139175
1.400000e-01 6.090159e-03 -6.150811 9.990520e-01 -6.863261 9.990520e-01 -6.863261 6.090159e-03 -6.150811
1.500000e-01 5.995482e-03 -3.243179 9.989157e-01 -7.376751 9.989157e-01 -7.376751 5.995482e-03 -3.243179
1.600000e-01 5.915617e-03 -0.390286 9.987844e-01 -7.887635 9.987844e-01 -7.887635 5.915617e-03 -0.390286
1.700000e-01 5.849467e-03 2.427046 9.986585e-01 -8.396169 9.986585e-01 -8.396169 5.849467e-03 2.427046
1.800000e-01 5.796488e-03 5.222018 9.985418e-01 -8.902681 9.985418e-01 -8.902681 5.796488e-03 5.222018
1.900000e-01 5.756539e-03 8.002599 9.984350e-01 -9.407423 9.984350e-01 -9.407423 5.756539e-03 8.002599
2.000000e-01 5.729687e-03 10.772145 9.983400e-01 -9.910680 9.983400e-01 -9.910680 5.729687e-03 10.772145
2.100000e-01 5.716157e-03 13.529997 9.982565e-01 -10.412580 9.982565e-01 -10.412580 5.716157e-03 13.529997
2.200000e-01 5.716192e-03 16.272173 9.981866e-01 -10.913356 9.981866e-01 -10.913356 5.716192e-03 16.272173
2.300000e-01 5.730021e-03 18.992044 9.981316e-01 -11.413233 9.981316e-01 -11.413233 5.730021e-03 18.992044
2.400000e-01 5.757833e-03 21.680614 9.980921e-01 -11.912274 9.980921e-01 -11.912274 5.757833e-03 21.680614
2.500000e-01 5.799709e-03 24.327931 9.980670e-01 -12.410799 9.980670e-01 -12.410799 5.799709e-03 24.327931
2.600000e-01 5.855585e-03 26.923482 9.980580e-01 -12.908802 9.980580e-01 -12.908802 5.855585e-03 26.923482
2.700000e-01 5.925315e-03 29.456408 9.980640e-01 -13.406594 9.980640e-01 -13.406594 5.925315e-03 29.456408
2.800000e-01 6.008580e-03 31.917032 9.980862e-01 -13.904242 9.980862e-01 -13.904242 6.008580e-03 31.917032
2.900000e-01 6.104981e-03 34.296411 9.981218e-01 -14.401850 9.981218e-01 -14.401850 6.104981e-03 34.296411
3.000000e-01 6.213974e-03 36.587417 9.981717e-01 -14.899601 9.981717e-01 -14.899601 6.213974e-03 36.587417
3.100000e-01 6.334954e-03 38.784264 9.982351e-01 -15.397593 9.982351e-01 -15.397593 6.334954e-03 38.784264
3.200000e-01 6.467226e-03 40.883157 9.983096e-01 -15.895935 9.983096e-01 -15.895935 6.467226e-03 40.883157
3.300000e-01 6.610067e-03 42.881892 9.983948e-01 -16.394723 9.983948e-01 -16.394723 6.610067e-03 42.881892
3.400000e-01 6.762720e-03 44.780015 9.984891e-01 -16.894062 9.984891e-01 -16.894062 6.762720e-03 44.780015
3.500000e-01 6.924425e-03 46.578426 9.985907e-01 -17.393967 9.985907e-01 -17.393967 6.924425e-03 46.578426
3.600000e-01 7.094437e-03 48.279280 9.986983e-01 -17.894543 9.986983e-01 -17.894543 7.094437e-03 48.279280
3.700000e-01 7.272019e-03 49.885779 9.988101e-01 -18.395801 9.988101e-01 -18.395801 7.272019e-03 49.885779
3.800000e-01 7.456507e-03 51.401694 9.989234e-01 -18.897838 9.989234e-01 -18.897838 7.456507e-03 51.401694
3.900000e-01 7.647264e-03 52.831682 9.990380e-01 -19.400569 9.990380e-01 -19.400569 7.647264e-03 52.831682
4.000000e-01 7.843696e-03 54.180545 9.991503e-01 -19.904067 9.991503e-01 -19.904067 7.843696e-03 54.180545
4.100000e-01 8.045311e-03 55.453359 9.992592e-01 -20.408333 9.992592e-01 -20.408333 8.045311e-03 55.453359
4.200000e-01 8.251632e-03 56.655327 9.993632e-01 -20.913269 9.993632e-01 -20.913269 8.251632e-03 56.655327
4.300000e-01 8.462301e-03 57.791617 9.994613e-01 -21.418887 9.994613e-01 -21.418887 8.462301e-03 57.791617
4.400000e-01 8.676980e-03 58.867116 9.995500e-01 -21.925152 9.995500e-01 -21.925152 8.676980e-03 58.867116
4.500000e-01 8.895445e-03 59.886695 9.996298e-01 -22.431974 9.996298e-01 -22.431974 8.895445e-03 59.886695
4.600000e-01 9.117477e-03 60.854821 9.996975e-01 -22.939253 9.996975e-01 -22.939253 9.117477e-03 60.854821
4.700000e-01 9.342972e-03 61.775679 9.997543e-01 -23.447014 9.997543e-01 -23.447014 9.342972e-03 61.775679
4.800000e-01 9.571866e-03 62.653279 9.997975e-01 -23.955073 9.997975e-01 -23.955073 9.571866e-03 62.653279
4.900000e-01 9.804139e-03 63.491115 9.998264e-01 -24.463401 9.998264e-01 -24.463401 9.804139e-03 63.491115
5.000000e-01 1.003983e-02 64.292282 9.998414e-01 -24.971787 9.998414e-01 -24.971787 1.003983e-02 64.292282
5.100000e-01 1.027905e-02 65.059759 9.998424e-01 -25.480304 9.998424e-01 -25.480304 1.027905e-02 65.059759
5.200000e-01 1.052190e-02 65.796009 9.998283e-01 -25.988724 9.998283e-01 -25.988724 1.052190e-02 65.796009
5.300000e-01 1.076854e-02 66.503039 9.998004e-01 -26.497006 9.998004e-01 -26.497006 1.076854e-02 66.503039
5.400000e-01 1.101918e-02 67.182854 9.997580e-01 -27.005042 9.997580e-01 -27.005042 1.101918e-02 67.182854
5.500000e-01 1.127400e-02 67.836885 9.997021e-01 -27.512729 9.997021e-01 -27.512729 1.127400e-02 67.836885
5.600000e-01 1.153330e-02 68.466394 9.996340e-01 -28.019945 9.996340e-01 -28.019945 1.153330e-02 68.466394
5.700000e-01 1.179733e-02 69.072469 9.995541e-01 -28.526681 9.995541e-01 -28.526681 1.179733e-02 69.072469
5.800000e-01 1.206630e-02 69.655625 9.994650e-01 -29.032826 9.994650e-01 -29.032826 1.206630e-02 69.655625
5.900000e-01 1.234046e-02 70.216436 9.993655e-01 -29.538335 9.993655e-01 -29.538335 1.234046e-02 70.216436
6.000000e-01 1.262012e-02 70.755303 9.992583e-01 -30.043099 9.992583e-01 -30.043099 1.262012e-02 70.755303
6.100000e-01 1.290548e-02 71.272283 9.991461e-01 -30.547130 9.991461e-01 -30.547130 1.290548e-02 71.272283
6.200000e-01 1.319676e-02 71.767376 9.990289e-01 -31.050399 9.990289e-01 -31.050399 1.319676e-02 71.767376
6.300000e-01 1.349435e-02 72.240696 9.989089e-01 -31.552860 9.989089e-01 -31.552860 1.349435e-02 72.240696
6.400000e-01 1.379821e-02 72.691843 9.987888e-01 -32.054508 9.987888e-01 -32.054508 1.379821e-02 72.691843
6.500000e-01 1.410872e-02 73.120702 9.986681e-01 -32.555393 9.986681e-01 -32.555393 1.410872e-02 73.120702
6.600000e-01 1.442594e-02 73.526929 9.985499e-01 -33.055419 9.985499e-01 -33.055419 1.442594e-02 73.526929
6.700000e-01 1.474998e-02 73.910180 9.984362e-01 -33.554735 9.984362e-01 -33.554735 1.474998e-02 73.910180
6.800000e-01 1.508106e-02 74.270399 9.983276e-01 -34.053340 9.983276e-01 -34.053340 1.508106e-02 74.270399
6.900000e-01 1.541911e-02 74.607069 9.982250e-01 -34.551286 9.982250e-01 -34.551286 1.541911e-02 74.607069
7.000000e-01 1.576417e-02 74.919904 9.981318e-01 -35.048585 9.981318e-01 -35.048585 1.576417e-02 74.919904
7.100000e-01 1.611635e-02 75.208847 9.980467e-01 -35.545379 9.980467e-01 -35.545379 1.611635e-02 75.208847
7.200000e-01 1.647557e-02 75.473782 9.979721e-01 -36.041721 9.979721e-01 -36.041721 1.647557e-02 75.473782
7.300000e-01 1.684178e-02 75.714482 9.979092e-01 -36.537645 9.979092e-01 -36.537645 1.684178e-02 75.714482
7.400000e-01 1.721498e-02 75.931060 9.978569e-01 -37.033276 9.978569e-01 -37.033276 1.721498e-02 75.931060
7.500000e-01 1.759491e-02 76.123459 9.978170e-01 -37.528707 9.978170e-01 -37.528707 1.759491e-02 76.123459
7.600000e-01 1.798140e-02 76.291794 9.977886e-01 -38.023977 9.977886e-01 -38.023977 1.798140e-02 76.291794
7.700000e-01 1.837456e-02 76.436466 9.977728e-01 -38.519288 9.977728e-01 -38.519288 1.837456e-02 76.436466
7.800000e-01 1.877394e-02 76.557475 9.977689e-01 -39.014604 9.977689e-01 -39.014604 1.877394e-02 76.557475
7.900000e-01 1.917946e-02 76.655279 9.977775e-01 -39.510081 9.977775e-01 -39.510081 1.917946e-02 76.655279
8.000000e-01 1.959096e-02 76.730393 9.977965e-01 -40.005758 9.977965e-01 -40.005758 1.959096e-02 76.730393
8.100000e-01 2.000808e-02 76.783105 9.978264e-01 -40.501779 9.978264e-01 -40.501779 2.000808e-02 76.783105
8.200000e-01 2.043065e-02 76.814102 9.978668e-01 -40.998133 9.978668e-01 -40.998133 2.043065e-02 76.814102
8.300000e-01 2.085852e-02 76.823900 9.979143e-01 -41.494939 9.979143e-01 -41.494939 2.085852e-02 76.823900
8.400000e-01 2.129124e-02 76.813014 9.979704e-01 -41.992237 9.979704e-01 -41.992237 2.129124e-02 76.813014
8.500000e-01 2.172874e-02 76.782246 9.980324e-01 -42.490115 9.980324e-01 -42.490115 2.172874e-02 76.782246
8.600000e-01 2.217077e-02 76.732341 9.980994e-01 -42.988525 9.980994e-01 -42.988525 2.217077e-02 76.732341
8.700000e-01 2.261690e-02 76.663816 9.981702e-01 -43.487577 9.981702e-01 -43.487577 2.261690e-02 76.663816
8.800000e-01 2.306708e-02 76.577528 9.982435e-01 -43.987219 9.982435e-01 -43.987219 2.306708e-02 76.577528
8.900000e-01 2.352106e-02 76.474224 9.983163e-01 -44.487514 9.983163e-01 -44.487514 2.352106e-02 76.474224
9.000000e-01 2.397851e-02 76.354648 9.983902e-01 -44.988434 9.983902e-01 -44.988434 2.397851e-02 76.354648
9.100000e-01 2.443937e-02 76.219544 9.984607e-01 -45.489967 9.984607e-01 -45.489967 2.443937e-02 76.219544
9.200000e-01 2.490323e-02 76.069601 9.985286e-01 -45.992124 9.985286e-01 -45.992124 2.490323e-02 76.069601
9.300000e-01 2.537014e-02 75.905678 9.985915e-01 -46.494860 9.985915e-01 -46.494860 2.537014e-02 75.905678
9.400000e-01 2.583976e-02 75.728405 9.986481e-01 -46.998066 9.986481e-01 -46.998066 2.583976e-02 75.728405
9.500000e-01 2.631208e-02 75.538527 9.986979e-01 -47.501754 9.986979e-01 -47.501754 2.631208e-02 75.538527
9.600000e-01 2.678684e-02 75.336731 9.987404e-01 -48.005848 9.987404e-01 -48.005848 2.678684e-02 75.336731
9.700000e-01 2.726394e-02 75.123590 9.987743e-01 -48.510331 9.987743e-01 -48.510331 2.726394e-02 75.123590
9.800000e-01 2.774323e-02 74.899793 9.987981e-01 -49.015084 9.987981e-01 -49.015084 2.774323e-02 74.899793
9.900000e-01 2.822479e-02 74.665969 9.988118e-01 -49.520015 9.988118e-01 -49.520015 2.822479e-02 74.665969
1.000000e+00 2.870849e-02 74.422691 9.988147e-01 -50.025134 9.988147e-01 -50.025134 2.870849e-02 74.422691
1.010000e+00 2.919412e-02 74.170418 9.988080e-01 -50.530328 9.988080e-01 -50.530328 2.919412e-02 74.170418
1.020000e+00 2.968186e-02 73.909665 9.987908e-01 -51.035454 9.987908e-01 -51.035454 2.968186e-02 73.909665
1.030000e+00 3.017158e-02 73.640948 9.987621e-01 -51.540527 9.987621e-01 -51.540527 3.017158e-02 73.640948
1.040000e+00 3.066328e-02 73.364610 9.987238e-01 -52.045395 9.987238e-01 -52.045395 3.066328e-02 73.364610
1.050000e+00 3.115695e-02 73.081053 9.986762e-01 -52.550062 9.986762e-01 -52.550062 3.115695e-02 73.081053
1.060000e+00 3.165268e-02 72.790678 9.986189e-01 -53.054425 9.986189e-01 -53.054425 3.165268e-02 72.790678
1.070000e+00 3.215047e-02 72.493772 9.985543e-01 -53.558427 9.985543e-01 -53.558427 3.215047e-02 72.493772
1.080000e+00 3.265023e-02 72.190562 9.984813e-01 -54.062006 9.984813e-01 -54.062006 3.265023e-02 72.190562
1.090000e+00 3.315218e-02 71.881280 9.984029e-01 -54.565143 9.984029e-01 -54.565143 3.315218e-02 71.881280
1.100000e+00 3.365622e-02 71.566210 9.983180e-01 -55.067770 9.983180e-01 -55.067770 3.365622e-02 71.566210
1.110000e+00 3.416255e-02 71.245583 9.982302e-01 -55.569813 9.982302e-01 -55.569813 3.416255e-02 71.245583
1.120000e+00 3.467107e-02 70.919226 9.981387e-01 -56.071363 9.981387e-01 -56.071363 3.467107e-02 70.919226
1.130000e+00 3.518198e-02 70.587541 9.980456e-01 -56.572346 9.980456e-01 -56.572346 3.518198e-02 70.587541
1.140000e+00 3.569528e-02 70.250756 9.979528e-01 -57.072744 9.979528e-01 -57.072744 3.569528e-02 70.250756
1.150000e+00 3.621101e-02 69.908529 9.978603e-01 -57.572518 9.978603e-01 -57.572518 3.621101e-02 69.908529
1.160000e+00 3.672917e-02 69.561144 9.977694e-01 -58.071736 9.977694e-01 -58.071736 3.672917e-02 69.561144
1.170000e+00 3.724987e-02 69.208546 9.976828e-01 -58.570496 9.976828e-01 -58.570496 3.724987e-02 69.208546
1.180000e+00 3.777306e-02 68.850677 9.975994e-01 -59.068683 9.975994e-01 -59.068683 3.777306e-02 68.850677
1.190000e+00 3.829893e-02 68.487765 9.975220e-01 -59.566469 9.975220e-01 -59.566469 3.829893e-02 68.487765
1.200000e+00 3.882724e-02 68.119697 9.974502e-01 -60.063796 9.974502e-01 -60.063796 3.882724e-02 68.119697
1.210000e+00 3.935826e-02 67.746301 9.973863e-01 -60.560722 9.973863e-01 -60.560722 3.935826e-02 67.746301
1.220000e+00 3.989183e-02 67.367690 9.973305e-01 -61.057419 9.973305e-01 -61.057419 3.989183e-02 67.367690
1.230000e+00 4.042791e-02 66.983751 9.972822e-01 -61.553773 9.972822e-01 -61.553773 4.042791e-02 66.983751
1.240000e+00 4.096648e-02 66.594426 9.972431e-01 -62.050069 9.972431e-01 -62.050069 4.096648e-02 66.594426
1.250000e+00 4.150761e-02 66.199716 9.972127e-01 -62.546136 9.972127e-01 -62.546136 4.150761e-02 66.199716
1.260000e+00 4.205113e-02 65.799734 9.971926e-01 -63.042145 9.971926e-01 -63.042145 4.205113e-02 65.799734
1.270000e+00 4.259700e-02 65.394080 9.971806e-01 -63.538269 9.971806e-01 -63.538269 4.259700e-02 65.394080
1.280000e+00 4.314503e-02 64.983097 9.971781e-01 -64.034393 9.971781e-01 -64.034393 4.314503e-02 64.983097
1.290000e+00 4.369534e-02 64.566557 9.971847e-01 -64.530689 9.971847e-01 -64.530689 4.369534e-02 64.566557
1.300000e+00 4.424749e-02 64.144573 9.971991e-01 -65.027157 9.971991e-01 -65.027157 4.424749e-02 64.144573
1.310000e+00 4.480169e-02 63.717032 9.972219e-01 -65.523912 9.972219e-01 -65.523912 4.480169e-02 63.717032
1.320000e+00 4.535759e-02 63.284048 9.972510e-01 -66.021010 9.972510e-01 -66.021010 4.535759e-02 63.284048
1.330000e+00 4.591499e-02 62.845506 9.972866e-01 -66.518509 9.972866e-01 -66.518509 4.591499e-02 62.845506
1.340000e+00 4.647399e-02 62.401578 9.973276e-01 -67.016352 9.973276e-01 -67.016352 4.647399e-02 62.401578
1.350000e+00 4.703417e-02 61.952265 9.973731e-01 -67.514596 9.973731e-01 -67.514596 4.703417e-02 61.952265
1.360000e+00 4.759548e-02 61.497680 9.974219e-01 -68.013413 9.974219e-01 -68.013413 4.759548e-02 61.497680
1.370000e+00 4.815772e-02 61.037824 9.974734e-01 -68.512746 9.974734e-01 -68.512746 4.815772e-02 61.037824
1.380000e+00 4.872061e-02 60.572754 9.975262e-01 -69.012537 9.975262e-01 -69.012537 4.872061e-02 60.572754
1.390000e+00 4.928415e-02 60.102872 9.975786e-01 -69.512787 9.975786e-01 -69.512787 4.928415e-02 60.102872
1.400000e+00 4.984793e-02 59.627890 9.976308e-01 -70.013552 9.976308e-01 -70.013552 4.984793e-02 59.627890
1.410000e+00 5.041200e-02 59.148152 9.976803e-01 -70.514833 9.976803e-01 -70.514833 5.041200e-02 59.148152
1.420000e+00 5.097600e-02 58.663716 9.977276e-01 -71.016572 9.977276e-01 -71.016572 5.097600e-02 58.663716
1.430000e+00 5.153981e-02 58.174869 9.977691e-01 -71.518827 9.977691e-01 -71.518827 5.153981e-02 58.174869
1.440000e+00 5.210319e-02 57.681609 9.978068e-01 -72.021425 9.978068e-01 -72.021425 5.210319e-02 57.681609
1.450000e+00 5.266598e-02 57.184202 9.978391e-01 -72.524425 9.978391e-01 -72.524425 5.266598e-02 57.184202
1.460000e+00 5.322819e-02 56.682726 9.978637e-01 -73.027768 9.978637e-01 -73.027768 5.322819e-02 56.682726
1.470000e+00 5.378942e-02 56.177463 9.978820e-01 -73.531341 9.978820e-01 -73.531341 5.378942e-02 56.177463
1.480000e+00 5.434963e-02 55.668516 9.978916e-01 -74.035257 9.978916e-01 -74.035257 5.434963e-02 55.668516
1.490000e+00 5.490879e-02 55.156132 9.978936e-01 -74.539231 9.978936e-01 -74.539231 5.490879e-02 55.156132
1.500000e+00 5.546661e-02 54.640367 9.978868e-01 -75.043376 9.978868e-01 -75.043376 5.546661e-02 54.640367
1.510000e+00 5.602301e-02 54.121513 9.978712e-01 -75.547637 9.978712e-01 -75.547637 5.602301e-02 54.121513
1.520000e+00 5.657786e-02 53.599709 9.978466e-01 -76.051782 9.978466e-01 -76.051782 5.657786e-02 53.599709
1.530000e+00 5.713113e-02 53.075143 9.978138e-01 -76.555928 9.978138e-01 -76.555928 5.713113e-02 53.075143
1.540000e+00 5.768284e-02 52.548045 9.977726e-01 -77.059901 9.977726e-01 -77.059901 5.768284e-02 52.548045
1.550000e+00 5.823278e-02 52.018449 9.977234e-01 -77.563760 9.977234e-01 -77.563760 5.823278e-02 52.018449
1.560000e+00 5.878090e-02 51.486515 9.976672e-01 -78.067390 9.976672e-01 -78.067390 5.878090e-02 51.486515
1.570000e+00 5.932724e-02 50.952564 9.976026e-01 -78.570676 9.976026e-01 -78.570676 5.932724e-02 50.952564
1.580000e+00 5.987179e-02 50.416659 9.975326e-01 -79.073676 9.975326e-01 -79.073676 5.987179e-02 50.416659
1.590000e+00 6.041447e-02 49.878778 9.974562e-01 -79.576332 9.974562e-01 -79.576332 6.041447e-02 49.878778
1.600000e+00 6.095537e-02 49.339286 9.973757e-01 -80.078587 9.973757e-01 -80.078587 6.095537e-02 49.339286
1.610000e+00 6.149440e-02 48.798157 9.972912e-01 -80.580383 9.972912e-01 -80.580383 6.149440e-02 48.798157
1.620000e+00 6.203163e-02 48.255474 9.972024e-01 -81.081836 9.972024e-01 -81.081836 6.203163e-02 48.255474
1.630000e+00 6.256704e-02 47.711393 9.971126e-01 -81.582773 9.971126e-01 -81.582773 6.256704e-02 47.711393
1.640000e+00 6.310084e-02 47.165977 9.970214e-01 -82.083252 9.970214e-01 -82.083252 6.310084e-02 47.165977
1.650000e+00 6.363285e-02 46.619250 9.969288e-01 -82.583272 9.969288e-01 -82.583272 6.363285e-02 46.619250
1.660000e+00 6.416320e-02 46.071336 9.968377e-01 -83.082776 9.968377e-01 -83.082776 6.416320e-02 46.071336
1.670000e+00 6.469207e-02 45.522184 9.967490e-01 -83.581880 9.967490e-01 -83.581880 6.469207e-02 45.522184
1.680000e+00 6.521937e-02 44.971984 9.966623e-01 -84.080525 9.966623e-01 -84.080525 6.521937e-02 44.971984
1.690000e+00 6.574527e-02 44.420547 9.965786e-01 -84.578827 9.965786e-01 -84.578827 6.574527e-02 44.420547
1.700000e+00 6.626969e-02 43.867941 9.964986e-01 -85.076727 9.964986e-01 -85.076727 6.626969e-02 43.867941
1.710000e+00 6.679273e-02 43.314292 9.964241e-01 -85.574283 9.964241e-01 -85.574283 6.679273e-02 43.314292
1.720000e+00 6.731464e-02 42.759474 9.963540e-01 -86.071553 9.963540e-01 -86.071553 6.731464e-02 42.759474
1.730000e+00 6.783519e-02 42.203424 9.962902e-01 -86.568537 9.962902e-01 -86.568537 6.783519e-02 42.203424
1.740000e+00 6.835464e-02 41.646268 9.962335e-01 -87.065349 9.962335e-01 -87.065349 6.835464e-02 41.646268
1.750000e+00 6.887288e-02 41.087829 9.961817e-01 -87.561989 9.961817e-01 -87.561989 6.887288e-02 41.087829
1.760000e+00 6.939005e-02 40.528095 9.961378e-01 -88.058514 9.961378e-01 -88.058514 6.939005e-02 40.528095
1.770000e+00 6.990619e-02 39.967021 9.961008e-01 -88.554924 9.961008e-01 -88.554924 6.990619e-02 39.967021
1.780000e+00 7.042122e-02 39.404536 9.960695e-01 -89.051392 9.960695e-01 -89.051392 7.042122e-02 39.404536
1.790000e+00 7.093526e-02 38.840637 9.960460e-01 -89.547860 9.960460e-01 -89.547860 7.093526e-02 38.840637
1.800000e+00 7.144817e-02 38.275196 9.960283e-01 -90.044386 9.960283e-01 -90.044386 7.144817e-02 38.275196
1.810000e+00 7.196014e-02 37.708278 9.960174e-01 -90.541025 9.960174e-01 -90.541025 7.196014e-02 37.708278
1.820000e+00 7.247092e-02 37.139623 9.960114e-01 -91.037837 9.960114e-01 -91.037837 7.247092e-02 37.139623
1.830000e+00 7.298068e-02 36.569398 9.960114e-01 -91.534878 9.960114e-01 -91.534878 7.298068e-02 36.569398
1.840000e+00 7.348926e-02 35.997300 9.960154e-01 -92.032148 9.960154e-01 -92.032148 7.348926e-02 35.997300
1.850000e+00 7.399678e-02 35.423425 9.960246e-01 -92.529647 9.960246e-01 -92.529647 7.399678e-02 35.423425
1.860000e+00 7.450296e-02 34.847734 9.960361e-01 -93.027433 9.960361e-01 -93.027433 7.450296e-02 34.847734
1.870000e+00 7.500777e-02 34.270015 9.960511e-01 -93.525562 9.960511e-01 -93.525562 7.500777e-02 34.270015
1.880000e+00 7.551134e-02 33.690382 9.960675e-01 -94.023978 9.960675e-01 -94.023978 7.551134e-02 33.690382
1.890000e+00 7.601334e-02 33.108699 9.960847e-01 -94.522738 9.960847e-01 -94.522738 7.601334e-02 33.108699
1.900000e+00 7.651386e-02 32.524986 9.961036e-01 -95.021842 9.961036e-01 -95.021842 7.651386e-02 32.524986
1.910000e+00 7.701262e-02 31.939166 9.961214e-01 -95.521232 9.961214e-01 -95.521232 7.701262e-02 31.939166
1.920000e+00 7.750962e-02 31.351294 9.961381e-01 -96.020966 9.961381e-01 -96.020966 7.750962e-02 31.351294
1.930000e+00 7.800477e-02 30.761199 9.961529e-01 -96.521043 9.961529e-01 -96.521043 7.800477e-02 30.761199
1.940000e+00 7.849784e-02 30.168944 9.961655e-01 -97.021350 9.961655e-01 -97.021350 7.849784e-02 30.168944
1.950000e+00 7.898887e-02 29.574466 9.961753e-01 -97.521943 9.961753e-01 -97.521943 7.898887e-02 29.574466
1.960000e+00 7.947758e-02 28.977919 9.961810e-01 -98.022766 9.961810e-01 -98.022766 7.947758e-02 28.977919
1.970000e+00 7.996395e-02 28.379161 9.961825e-01 -98.523817 9.961825e-01 -98.523817 7.996395e-02 28.379161
1.980000e+00 8.044774e-02 27.778220 9.961799e-01 -99.025041 9.961799e-01 -99.025041 8.044774e-02 27.778220
1.990000e+00 8.092901e-02 27.175182 9.961717e-01 -99.526379 9.961717e-01 -99.526379 8.092901e-02 27.175182
2.000000e+00 8.140754e-02 26.569961 9.961591e-01 -100.027831 9.961591e-01 -100.027831 8.140754e-02 26.569961
2.010000e+00 8.188316e-02 25.962626 9.961406e-01 -100.529341 9.961406e-01 -100.529341 8.188316e-02 25.962626
2.020000e+00 8.235577e-02 25.353199 9.961161e-01 -101.030909 9.961161e-01 -101.030909 8.235577e-02 25.353199
2.030000e+00 8.282528e-02 24.741767 9.960872e-01 -101.532418 9.960872e-01 -101.532418 8.282528e-02 24.741767
2.040000e+00 8.329157e-02 24.128273 9.960528e-01 -102.033871 9.960528e-01 -102.033871 8.329157e-02 24.128273
2.050000e+00 8.375456e-02 23.512796 9.960121e-01 -102.535209 9.960121e-01 -102.535209 8.375456e-02 23.512796
2.060000e+00 8.421407e-02 22.895411 9.959673e-01 -103.036433 9.959673e-01 -103.036433 8.421407e-02 22.895411
2.070000e+00 8.467014e-02 22.276152 9.959176e-01 -103.537484 9.959176e-01 -103.537484 8.467014e-02 22.276152
2.080000e+00 8.512263e-02 21.655009 9.958639e-01 -104.038364 9.958639e-01 -104.038364 8.512263e-02 21.655009
2.090000e+00 8.557147e-02 21.032014 9.958067e-01 -104.538957 9.958067e-01 -104.538957 8.557147e-02 21.032014
2.100000e+00 8.601650e-02 20.407284 9.957456e-01 -105.039379 9.957456e-01 -105.039379 8.601650e-02 20.407284
2.110000e+00 8.645772e-02 19.780835 9.956819e-01 -105.539456 9.956819e-01 -105.539456 8.645772e-02 19.780835
2.120000e+00 8.689504e-02 19.152678 9.956158e-01 -106.039304 9.956158e-01 -106.039304 8.689504e-02 19.152678
2.130000e+00 8.732852e-02 18.522941 9.955485e-01 -106.538752 9.955485e-01 -106.538752 8.732852e-02 18.522941
2.140000e+00 8.775801e-02 17.891558 9.954798e-01 -107.037970 9.954798e-01 -107.037970 8.775801e-02 17.891558
2.150000e+00 8.818352e-02 17.258589 9.954112e-01 -107.536844 9.954112e-01 -107.536844 8.818352e-02 17.258589
2.160000e+00 8.860497e-02 16.624084 9.953435e-01 -108.035375 9.953435e-01 -108.035375 8.860497e-02 16.624084
2.170000e+00 8.902238e-02 15.988089 9.952756e-01 -108.533619 9.952756e-01 -108.533619 8.902238e-02 15.988089
2.180000e+00 8.943562e-02 15.350651 9.952098e-01 -109.031519 9.952098e-01 -109.031519 8.943562e-02 15.350651
2.190000e+00 8.984488e-02 14.711700 9.951463e-01 -109.529133 9.951463e-01 -109.529133 8.984488e-02 14.711700
2.200000e+00 9.024997e-02 14.071368 9.950859e-01 -110.026575 9.950859e-01 -110.026575 9.024997e-02 14.071368
2.210000e+00 9.065098e-02 13.429649 9.950279e-01 -110.523673 9.950279e-01 -110.523673 9.065098e-02 13.429649
2.220000e+00 9.104773e-02 12.786458 9.949750e-01 -111.020600 9.949750e-01 -111.020600 9.104773e-02 12.786458
2.230000e+00 9.144045e-02 12.141904 9.949242e-01 -111.517297 9.949242e-01 -111.517297 9.144045e-02 12.141904
2.240000e+00 9.182902e-02 11.496014 9.948793e-01 -112.013822 9.948793e-01 -112.013822 9.182902e-02 11.496014
2.250000e+00 9.221346e-02 10.848658 9.948384e-01 -112.510233 9.948384e-01 -112.510233 9.221346e-02 10.848658
2.260000e+00 9.259378e-02 10.199972 9.948020e-01 -113.006471 9.948020e-01 -113.006471 9.259378e-02 10.199972
2.270000e+00 9.296982e-02 9.549900 9.947713e-01 -113.502767 9.947713e-01 -113.502767 9.296982e-02 9.549900
2.280000e+00 9.334185e-02 8.898413 9.947446e-01 -113.998949 9.947446e-01 -113.998949 9.334185e-02 8.898413
2.290000e+00 9.370963e-02 8.245590 9.947235e-01 -114.495130 9.947235e-01 -114.495130 9.370963e-02 8.245590
2.300000e+00 9.407329e-02 7.591278 9.947077e-01 -114.991312 9.947077e-01 -114.991312 9.407329e-02 7.591278
2.310000e+00 9.443270e-02 6.935545 9.946953e-01 -115.487608 9.946953e-01 -115.487608 9.443270e-02 6.935545
2.320000e+00 9.478801e-02 6.278351 9.946886e-01 -115.984018 9.946886e-01 -115.984018 9.478801e-02 6.278351
2.330000e+00 9.513907e-02 5.619742 9.946860e-01 -116.480429 9.946860e-01 -116.480429 9.513907e-02 5.619742
2.340000e+00 9.548591e-02 4.959624 9.946864e-01 -116.977012 9.946864e-01 -116.977012 9.548591e-02 4.959624
2.350000e+00 9.582849e-02 4.297998 9.946906e-01 -117.473823 9.946906e-01 -117.473823 9.582849e-02 4.297998
2.360000e+00 9.616675e-02 3.634852 9.946967e-01 -117.970807 9.946967e-01 -117.970807 9.616675e-02 3.634852
2.370000e+00 9.650073e-02 2.970149 9.947070e-01 -118.467962 9.947070e-01 -118.467962 9.650073e-02 2.970149
2.380000e+00 9.683037e-02 2.303875 9.947182e-01 -118.965290 9.947182e-01 -118.965290 9.683037e-02 2.303875
2.390000e+00 9.715560e-02 1.636009 9.947315e-01 -119.462903 9.947315e-01 -119.462903 9.715560e-02 1.636009
2.400000e+00 9.747647e-02 0.966533 9.947449e-01 -119.960747 9.947449e-01 -119.960747 9.747647e-02 0.966533
2.410000e+00 9.779290e-02 0.295417 9.947598e-01 -120.458761 9.947598e-01 -120.458761 9.779290e-02 0.295417
2.420000e+00 9.810473e-02 -0.377351 9.947743e-01 -120.957006 9.947743e-01 -120.957006 9.810473e-02 -0.377351
2.430000e+00 9.841198e-02 -1.051792 9.947881e-01 -121.455479 9.947881e-01 -121.455479 9.841198e-02 -1.051792
2.440000e+00 9.871469e-02 -1.727923 9.948013e-01 -121.954124 9.948013e-01 -121.954124 9.871469e-02 -1.727923
2.450000e+00 9.901277e-02 -2.405760 9.948129e-01 -122.452998 9.948129e-01 -122.452998 9.901277e-02 -2.405760
2.460000e+00 9.930604e-02 -3.085316 9.948222e-01 -122.952102 9.948222e-01 -122.952102 9.930604e-02 -3.085316
2.470000e+00 9.959463e-02 -3.766604 9.948293e-01 -123.451263 9.948293e-01 -123.451263 9.959463e-02 -3.766604
2.480000e+00 9.987834e-02 -4.449632 9.948343e-01 -123.950538 9.948343e-01 -123.950538 9.987834e-02 -4.449632
2.490000e+00 1.001572e-01 -5.134413 9.948364e-01 -124.449985 9.948364e-01 -124.449985 1.001572e-01 -5.134413
2.500000e+00 1.004311e-01 -5.820936 9.948355e-01 -124.949490 9.948355e-01 -124.949490 1.004311e-01 -5.820936
2.510000e+00 1.007002e-01 -6.509230 9.948305e-01 -125.449109 9.948305e-01 -125.449109 1.007002e-01 -6.509230
2.520000e+00 1.009640e-01 -7.199346 9.948228e-01 -125.948671 9.948228e-01 -125.948671 1.009640e-01 -7.199346
2.530000e+00 1.012225e-01 -7.891210 9.948119e-01 -126.448290 9.948119e-01 -126.448290 1.012225e-01 -7.891210
2.540000e+00 1.014759e-01 -8.584844 9.947975e-01 -126.947852 9.947975e-01 -126.947852 1.014759e-01 -8.584844
2.550000e+00 1.017244e-01 -9.280278 9.947797e-01 -127.447357 9.947797e-01 -127.447357 1.017244e-01 -9.280278
2.560000e+00 1.019682e-01 -9.977413 9.947591e-01 -127.946804 9.947591e-01 -127.946804 1.019682e-01 -9.977413
2.570000e+00 1.022053e-01 -10.676433 9.947354e-01 -128.446137 9.947354e-01 -128.446137 1.022053e-01 -10.676433
2.580000e+00 1.024379e-01 -11.377171 9.947091e-01 -128.945355 9.947091e-01 -128.945355 1.024379e-01 -11.377171
2.590000e+00 1.026653e-01 -12.079658 9.946804e-01 -129.444459 9.946804e-01 -129.444459 1.026653e-01 -12.079658
2.600000e+00 1.028874e-01 -12.783920 9.946494e-01 -129.943276 9.946494e-01 -129.943276 1.028874e-01 -12.783920
2.610000e+00 1.031036e-01 -13.490028 9.946168e-01 -130.441978 9.946168e-01 -130.441978 1.031036e-01 -13.490028
2.620000e+00 1.033148e-01 -14.197785 9.945831e-01 -130.940566 9.945831e-01 -130.940566 1.033148e-01 -14.197785
2.630000e+00 1.035202e-01 -14.907422 9.945484e-01 -131.438810 9.945484e-01 -131.438810 1.035202e-01 -14.907422
2.640000e+00 1.037205e-01 -15.618698 9.945135e-01 -131.936882 9.945135e-01 -131.936882 1.037205e-01 -15.618698
2.650000e+00 1.039151e-01 -16.331812 9.944787e-01 -132.434783 9.944787e-01 -132.434783 1.039151e-01 -16.331812
2.660000e+00 1.041042e-01 -17.046721 9.944443e-01 -132.932396 9.944443e-01 -132.932396 1.041042e-01 -17.046721
2.670000e+00 1.042879e-01 -17.763359 9.944114e-01 -133.429838 9.944114e-01 -133.429838 1.042879e-01 -17.763359
2.680000e+00 1.044660e-01 -18.481762 9.943792e-01 -133.927108 9.943792e-01 -133.927108 1.044660e-01 -18.481762
2.690000e+00 1.046386e-01 -19.201936 9.943491e-01 -134.424092 9.943491e-01 -134.424092 1.046386e-01 -19.201936
2.700000e+00 1.048057e-01 -19.923885 9.943218e-01 -134.920846 9.943218e-01 -134.920846 1.048057e-01 -19.923885
2.710000e+00 1.049674e-01 -20.647646 9.942963e-01 -135.417486 9.942963e-01 -135.417486 1.049674e-01 -20.647646
2.720000e+00 1.051235e-01 -21.373176 9.942748e-01 -135.914011 9.942748e-01 -135.914011 1.051235e-01 -21.373176
2.730000e+00 1.052742e-01 -22.100523 9.942558e-01 -136.410365 9.942558e-01 -136.410365 1.052742e-01 -22.100523
2.740000e+00 1.054194e-01 -22.829681 9.942405e-01 -136.906489 9.942405e-01 -136.906489 1.054194e-01 -22.829681
2.750000e+00 1.055592e-01 -23.560712 9.942289e-01 -137.402613 9.942289e-01 -137.402613 1.055592e-01 -23.560712
2.760000e+00 1.056935e-01 -24.293525 9.942218e-01 -137.898680 9.942218e-01 -137.898680 1.056935e-01 -24.293525
2.770000e+00 1.058224e-01 -25.028269 9.942184e-01 -138.394632 9.942184e-01 -138.394632 1.058224e-01 -25.028269
2.780000e+00 1.059459e-01 -25.764898 9.942200e-01 -138.890642 9.942200e-01 -138.890642 1.059459e-01 -25.764898
2.790000e+00 1.060640e-01 -26.503372 9.942252e-01 -139.386594 9.942252e-01 -139.386594 1.060640e-01 -26.503372
2.800000e+00 1.061768e-01 -27.243828 9.942340e-01 -139.882546 9.942340e-01 -139.882546 1.061768e-01 -27.243828
2.810000e+00 1.062841e-01 -27.986221 9.942479e-01 -140.378556 9.942479e-01 -140.378556 1.062841e-01 -27.986221
2.820000e+00 1.063862e-01 -28.730545 9.942654e-01 -140.874680 9.942654e-01 -140.874680 1.063862e-01 -28.730545
2.830000e+00 1.064829e-01 -29.476948 9.942866e-01 -141.370862 9.942866e-01 -141.370862 1.064829e-01 -29.476948
2.840000e+00 1.065743e-01 -30.225317 9.943115e-01 -141.867158 9.943115e-01 -141.867158 1.065743e-01 -30.225317
2.850000e+00 1.066604e-01 -30.975777 9.943396e-01 -142.363683 9.943396e-01 -142.363683 1.066604e-01 -30.975777
2.860000e+00 1.067412e-01 -31.728283 9.943704e-01 -142.860208 9.943704e-01 -142.860208 1.067412e-01 -31.728283
2.870000e+00 1.068168e-01 -32.482960 9.944046e-01 -143.356962 9.944046e-01 -143.356962 1.068168e-01 -32.482960
2.880000e+00 1.068870e-01 -33.239786 9.944403e-01 -143.853889 9.944403e-01 -143.853889 1.068870e-01 -33.239786
2.890000e+00 1.069520e-01 -33.998777 9.944780e-01 -144.351044 9.944780e-01 -144.351044 1.069520e-01 -33.998777
2.900000e+00 1.070118e-01 -34.759934 9.945180e-01 -144.848372 9.945180e-01 -144.848372 1.070118e-01 -34.759934
2.910000e+00 1.070663e-01 -35.523378 9.945582e-01 -145.345871 9.945582e-01 -145.345871 1.070663e-01 -35.523378
2.920000e+00 1.071156e-01 -36.289078 9.945996e-01 -145.843599 9.945996e-01 -145.843599 1.071156e-01 -36.289078
2.930000e+00 1.071597e-01 -37.057123 9.946406e-01 -146.341500 9.946406e-01 -146.341500 1.071597e-01 -37.057123
2.940000e+00 1.071986e-01 -37.827476 9.946824e-01 -146.839629 9.946824e-01 -146.839629 1.071986e-01 -37.827476
2.950000e+00 1.072323e-01 -38.600184 9.947237e-01 -147.337873 9.947237e-01 -147.337873 1.072323e-01 -38.600184
2.960000e+00 1.072608e-01 -39.375338 9.947643e-01 -147.836346 9.947643e-01 -147.836346 1.072608e-01 -39.375338
2.970000e+00 1.072840e-01 -40.152899 9.948044e-01 -148.335049 9.948044e-01 -148.335049 1.072840e-01 -40.152899
2.980000e+00 1.073021e-01 -40.932936 9.948419e-01 -148.833809 9.948419e-01 -148.833809 1.073021e-01 -40.932936
2.990000e+00 1.073150e-01 -41.715499 9.948787e-01 -149.332740 9.948787e-01 -149.332740 1.073150e-01 -41.715499
3.000000e+00 1.073229e-01 -42.500583 9.949132e-01 -149.831787 9.949132e-01 -149.831787 1.073229e-01 -42.500583
3.010000e+00 1.073255e-01 -43.288210 9.949456e-01 -150.330890 9.949456e-01 -150.330890 1.073255e-01 -43.288210
3.020000e+00 1.073229e-01 -44.078451 9.949764e-01 -150.830108 9.949764e-01 -150.830108 1.073229e-01 -44.078451
3.030000e+00 1.073152e-01 -44.871339 9.950047e-01 -151.329441 9.950047e-01 -151.329441 1.073152e-01 -44.871339
3.040000e+00 1.073024e-01 -45.666879 9.950307e-01 -151.828774 9.950307e-01 -151.828774 1.073024e-01 -45.666879
3.050000e+00 1.072845e-01 -46.465078 9.950539e-01 -152.328106 9.950539e-01 -152.328106 1.072845e-01 -46.465078
3.060000e+00 1.072615e-01 -47.266050 9.950753e-01 -152.827439 9.950753e-01 -152.827439 1.072615e-01 -47.266050
3.070000e+00 1.072333e-01 -48.069692 9.950945e-01 -153.326772 9.950945e-01 -153.326772 1.072333e-01 -48.069692
3.080000e+00 1.072001e-01 -48.876182 9.951115e-01 -153.826105 9.951115e-01 -153.826105 1.072001e-01 -48.876182
3.090000e+00 1.071619e-01 -49.685485 9.951275e-01 -154.325323 9.951275e-01 -154.325323 1.071619e-01 -49.685485
3.100000e+00 1.071186e-01 -50.497664 9.951403e-01 -154.824484 9.951403e-01 -154.824484 1.071186e-01 -50.497664
3.110000e+00 1.070703e-01 -51.312639 9.951535e-01 -155.323587 9.951535e-01 -155.323587 1.070703e-01 -51.312639
3.120000e+00 1.070171e-01 -52.130536 9.951642e-01 -155.822576 9.951642e-01 -155.822576 1.070171e-01 -52.130536
3.130000e+00 1.069589e-01 -52.951419 9.951738e-01 -156.321450 9.951738e-01 -156.321450 1.069589e-01 -52.951419
3.140000e+00 1.068958e-01 -53.775263 9.951831e-01 -156.820210 9.951831e-01 -156.820210 1.068958e-01 -53.775263
3.150000e+00 1.068278e-01 -54.602053 9.951923e-01 -157.318855 9.951923e-01 -157.318855 1.068278e-01 -54.602053
3.160000e+00 1.067549e-01 -55.431891 9.952016e-01 -157.817386 9.952016e-01 -157.817386 1.067549e-01 -55.431891
3.170000e+00 1.066773e-01 -56.264799 9.952110e-01 -158.315745 9.952110e-01 -158.315745 1.066773e-01 -56.264799
3.180000e+00 1.065948e-01 -57.100802 9.952216e-01 -158.814046 9.952216e-01 -158.814046 1.065948e-01 -57.100802
3.190000e+00 1.065075e-01 -57.939956 9.952325e-01 -159.312175 9.952325e-01 -159.312175 1.065075e-01 -57.939956
3.200000e+00 1.064157e-01 -58.782261 9.952453e-01 -159.810190 9.952453e-01 -159.810190 1.064157e-01 -58.782261
3.210000e+00 1.063191e-01 -59.627718 9.952593e-01 -160.308148 9.952593e-01 -160.308148 1.063191e-01 -59.627718
3.220000e+00 1.062179e-01 -60.476440 9.952757e-01 -160.805991 9.952757e-01 -160.805991 1.062179e-01 -60.476440
3.230000e+00 1.061123e-01 -61.328371 9.952939e-01 -161.303662 9.952939e-01 -161.303662 1.061123e-01 -61.328371
3.240000e+00 1.060021e-01 -62.183625 9.953142e-01 -161.801333 9.953142e-01 -161.801333 1.060021e-01 -62.183625
3.250000e+00 1.058875e-01 -63.042260 9.953374e-01 -162.298947 9.953374e-01 -162.298947 1.058875e-01 -63.042260
3.260000e+00 1.057684e-01 -63.904217 9.953633e-01 -162.796504 9.953633e-01 -162.796504 1.057684e-01 -63.904217
3.270000e+00 1.056451e-01 -64.769613 9.953918e-01 -163.294060 9.953918e-01 -163.294060 1.056451e-01 -64.769613
3.280000e+00 1.055175e-01 -65.638446 9.954235e-01 -163.791559 9.954235e-01 -163.791559 1.055175e-01 -65.638446
3.290000e+00 1.053857e-01 -66.510717 9.954579e-01 -164.289116 9.954579e-01 -164.289116 1.053857e-01 -66.510717
3.300000e+00 1.052497e-01 -67.386483 9.954965e-01 -164.786730 9.954965e-01 -164.786730 1.052497e-01 -67.386483
3.310000e+00 1.051097e-01 -68.265859 9.955364e-01 -165.284286 9.955364e-01 -165.284286 1.051097e-01 -68.265859
3.320000e+00 1.049658e-01 -69.148787 9.955803e-01 -165.782015 9.955803e-01 -165.782015 1.049658e-01 -69.148787
3.330000e+00 1.048179e-01 -70.035324 9.956268e-01 -166.279743 9.956268e-01 -166.279743 1.048179e-01 -70.035324
3.340000e+00 1.046662e-01 -70.925586 9.956757e-01 -166.777644 9.956757e-01 -166.777644 1.046662e-01 -70.925586
3.350000e+00 1.045107e-01 -71.819457 9.957271e-01 -167.275601 9.957271e-01 -167.275601 1.045107e-01 -71.819457
3.360000e+00 1.043515e-01 -72.717168 9.957813e-01 -167.773788 9.957813e-01 -167.773788 1.043515e-01 -72.717168
3.370000e+00 1.041888e-01 -73.618660 9.958376e-01 -168.271975 9.958376e-01 -168.271975 1.041888e-01 -73.618660
3.380000e+00 1.040227e-01 -74.523933 9.958948e-01 -168.770391 9.958948e-01 -168.770391 1.040227e-01 -74.523933
3.390000e+00 1.038524e-01 -75.432988 9.959541e-01 -169.268979 9.959541e-01 -169.268979 1.038524e-01 -75.432988
3.400000e+00 1.036800e-01 -76.346168 9.960149e-01 -169.767738 9.960149e-01 -169.767738 1.036800e-01 -76.346168
3.410000e+00 1.035039e-01 -77.263187 9.960773e-01 -170.266670 9.960773e-01 -170.266670 1.035039e-01 -77.263187
3.420000e+00 1.033243e-01 -78.184216 9.961395e-01 -170.765716 9.961395e-01 -170.765716 1.033243e-01 -78.184216
3.430000e+00 1.031417e-01 -79.109257 9.962027e-01 -171.264992 9.962027e-01 -171.264992 1.031417e-01 -79.109257
3.440000e+00 1.029562e-01 -80.038365 9.962661e-01 -171.764382 9.962661e-01 -171.764382 1.029562e-01 -80.038365
3.450000e+00 1.027682e-01 -80.971599 9.963287e-01 -172.264058 9.963287e-01 -172.264058 1.027682e-01 -80.971599
3.460000e+00 1.025771e-01 -81.909072 9.963909e-01 -172.763849 9.963909e-01 -172.763849 1.025771e-01 -81.909072
3.470000e+00 1.023840e-01 -82.850728 9.964529e-01 -173.263755 9.964529e-01 -173.263755 1.023840e-01 -82.850728
3.480000e+00 1.021884e-01 -83.796625 9.965138e-01 -173.763833 9.965138e-01 -173.763833 1.021884e-01 -83.796625
3.490000e+00 1.019894e-01 -84.746760 9.965737e-01 -174.264082 9.965737e-01 -174.264082 1.019894e-01 -84.746760
3.500000e+00 1.017893e-01 -85.701365 9.966319e-01 -174.764503 9.966319e-01 -174.764503 1.017893e-01 -85.701365
3.510000e+00 1.015865e-01 -86.660268 9.966896e-01 -175.264982 9.966896e-01 -175.264982 1.015865e-01 -86.660268
3.520000e+00 1.013822e-01 -87.623639 9.967448e-01 -175.765575 9.967448e-01 -175.765575 1.013822e-01 -87.623639
3.530000e+00 1.011756e-01 -88.591536 9.967977e-01 -176.266283 9.967977e-01 -176.266283 1.011756e-01 -88.591536
3.540000e+00 1.009669e-01 -89.563903 9.968495e-01 -176.767048 9.968495e-01 -176.767048 1.009669e-01 -89.563903
3.550000e+00 1.007575e-01 -90.540853 9.969001e-01 -177.267928 9.969001e-01 -177.267928 1.007575e-01 -90.540853
3.560000e+00 1.005455e-01 -91.522502 9.969478e-01 -177.768808 9.969478e-01 -177.768808 1.005455e-01 -91.522502
3.570000e+00 1.003332e-01 -92.508734 9.969936e-01 -178.269745 9.969936e-01 -178.269745 1.003332e-01 -92.508734
3.580000e+00 1.001189e-01 -93.499779 9.970385e-01 -178.770682 9.970385e-01 -178.770682 1.001189e-01 -93.499779
3.590000e+00 9.990386e-02 -94.495523 9.970806e-01 -179.271676 9.970806e-01 -179.271676 9.990386e-02 -94.495523
3.600000e+00 9.968789e-02 -95.496079 9.971219e-01 -179.772613 9.971219e-01 -179.772613 9.968789e-02 -95.496079
3.610000e+00 9.947112e-02 -96.501563 9.971614e-01 179.726433 9.971614e-01 179.726433 9.947112e-02 -96.501563
3.620000e+00 9.925373e-02 -97.511916 9.972001e-01 179.225496 9.972001e-01 179.225496 9.925373e-02 -97.511916
3.630000e+00 9.903589e-02 -98.527255 9.972370e-01 178.724616 9.972370e-01 178.724616 9.903589e-02 -98.527255
3.640000e+00 9.881771e-02 -99.547578 9.972732e-01 178.223793 9.972732e-01 178.223793 9.881771e-02 -99.547578
3.650000e+00 9.859921e-02 -100.572943 9.973085e-01 177.722971 9.973085e-01 177.722971 9.859921e-02 -100.572943
3.660000e+00 9.838079e-02 -101.603465 9.973429e-01 177.222206 9.973429e-01 177.222206 9.838079e-02 -101.603465
3.670000e+00 9.816249e-02 -102.639086 9.973773e-01 176.721498 9.973773e-01 176.721498 9.816249e-02 -102.639086
3.680000e+00 9.794435e-02 -103.679864 9.974118e-01 176.220848 9.974118e-01 176.220848 9.794435e-02 -103.679864
3.690000e+00 9.772674e-02 -104.725913 9.974463e-01 175.720254 9.974463e-01 175.720254 9.772674e-02 -104.725913
3.700000e+00 9.750965e-02 -105.777176 9.974816e-01 175.219718 9.974816e-01 175.219718 9.750965e-02 -105.777176
3.710000e+00 9.729324e-02 -106.833825 9.975168e-01 174.719240 9.975168e-01 174.719240 9.729324e-02 -106.833825
3.720000e+00 9.707781e-02 -107.895802 9.975528e-01 174.218761 9.975528e-01 174.218761 9.707781e-02 -107.895802
3.730000e+00 9.686335e-02 -108.963108 9.975896e-01 173.718282 9.975896e-01 173.718282 9.686335e-02 -108.963108
3.740000e+00 9.665021e-02 -110.035800 9.976279e-01 173.217918 9.976279e-01 173.217918 9.665021e-02 -110.035800
3.750000e+00 9.643834e-02 -111.113992 9.976670e-01 172.717497 9.976670e-01 172.717497 9.643834e-02 -111.113992
3.760000e+00 9.622803e-02 -112.197627 9.977075e-01 172.217133 9.977075e-01 172.217133 9.622803e-02 -112.197627
3.770000e+00 9.601947e-02 -113.286762 9.977498e-01 171.716654 9.977498e-01 171.716654 9.601947e-02 -113.286762
3.780000e+00 9.581269e-02 -114.381398 9.977933e-01 171.216290 9.977933e-01 171.216290 9.581269e-02 -114.381398
3.790000e+00 9.560802e-02 -115.481592 9.978384e-01 170.715812 9.978384e-01 170.715812 9.560802e-02 -115.481592
3.800000e+00 9.540543e-02 -116.587343 9.978849e-01 170.215276 9.978849e-01 170.215276 9.540543e-02 -116.587343
3.810000e+00 9.520527e-02 -117.698652 9.979330e-01 169.714683 9.979330e-01 169.714683 9.520527e-02 -117.698652
3.820000e+00 9.500769e-02 -118.815461 9.979822e-01 169.214032 9.979822e-01 169.214032 9.500769e-02 -118.815461
3.830000e+00 9.481270e-02 -119.937943 9.980339e-01 168.713267 9.980339e-01 168.713267 9.481270e-02 -119.937943
3.840000e+00 9.462069e-02 -121.065982 9.980858e-01 168.212445 9.980858e-01 168.212445 9.462069e-02 -121.065982
3.850000e+00 9.443166e-02 -122.199579 9.981390e-01 167.711508 9.981390e-01 167.711508 9.443166e-02 -122.199579
3.860000e+00 9.424589e-02 -123.338734 9.981933e-01 167.210513 9.981933e-01 167.210513 9.424589e-02 -123.338734
3.870000e+00 9.406354e-02 -124.483446 9.982479e-01 166.709290 9.982479e-01 166.709290 9.406354e-02 -124.483446
3.880000e+00 9.388471e-02 -125.633659 9.983036e-01 166.207952 9.983036e-01 166.207952 9.388471e-02 -125.633659
3.890000e+00 9.370975e-02 -126.789429 9.983595e-01 165.706499 9.983595e-01 165.706499 9.370975e-02 -126.789429
3.900000e+00 9.353866e-02 -127.950700 9.984151e-01 165.204932 9.984151e-01 165.204932 9.353866e-02 -127.950700
3.910000e+00 9.337173e-02 -129.117414 9.984717e-01 164.703193 9.984717e-01 164.703193 9.337173e-02 -129.117414
3.920000e+00 9.320913e-02 -130.289571 9.985273e-01 164.201282 9.985273e-01 164.201282 9.320913e-02 -130.289571
3.930000e+00 9.305100e-02 -131.467057 9.985823e-01 163.699256 9.985823e-01 163.699256 9.305100e-02 -131.467057
3.940000e+00 9.289756e-02 -132.649928 9.986372e-01 163.197058 9.986372e-01 163.197058 9.289756e-02 -132.649928
3.950000e+00 9.274905e-02 -133.838071 9.986912e-01 162.694746 9.986912e-01 162.694746 9.274905e-02 -133.838071
3.960000e+00 9.260562e-02 -135.031427 9.987435e-01 162.192320 9.987435e-01 162.192320 9.260562e-02 -135.031427
3.970000e+00 9.246753e-02 -136.229998 9.987948e-01 161.689721 9.987948e-01 161.689721 9.246753e-02 -136.229998
3.980000e+00 9.233484e-02 -137.433667 9.988442e-01 161.187008 9.988442e-01 161.187008 9.233484e-02 -137.433667
3.990000e+00 9.220779e-02 -138.642379 9.988921e-01 160.684123 9.988921e-01 160.684123 9.220779e-02 -138.642379
4.000000e+00 9.208663e-02 -139.856018 9.989383e-01 160.181238 9.989383e-01 160.181238 9.208663e-02 -139.856018
4.010000e+00 9.197156e-02 -141.074585 9.989827e-01 159.678238 9.989827e-01 159.678238 9.197156e-02 -141.074585
4.020000e+00 9.186267e-02 -142.297965 9.990252e-01 159.175067 9.990252e-01 159.175067 9.186267e-02 -142.297965
4.030000e+00 9.176027e-02 -143.526042 9.990650e-01 158.671895 9.990650e-01 158.671895 9.176027e-02 -143.526042
4.040000e+00 9.166455e-02 -144.758704 9.991025e-01 158.168609 9.991025e-01 158.168609 9.166455e-02 -144.758704
4.050000e+00 9.157558e-02 -145.995834 9.991386e-01 157.665323 9.991386e-01 157.665323 9.157558e-02 -145.995834
4.060000e+00 9.149381e-02 -147.237434 9.991714e-01 157.161979 9.991714e-01 157.161979 9.149381e-02 -147.237434
4.070000e+00 9.141918e-02 -148.483388 9.992024e-01 156.658579 9.992024e-01 156.658579 9.141918e-02 -148.483388
4.080000e+00 9.135197e-02 -149.733467 9.992316e-01 156.155178 9.992316e-01 156.155178 9.135197e-02 -149.733467
4.090000e+00 9.129244e-02 -150.987614 9.992591e-01 155.651835 9.992591e-01 155.651835 9.129244e-02 -150.987614
4.100000e+00 9.124067e-02 -152.245715 9.992837e-01 155.148491 9.992837e-01 155.148491 9.124067e-02 -152.245715
4.110000e+00 9.119690e-02 -153.507712 9.993066e-01 154.645090 9.993066e-01 154.645090 9.119690e-02 -153.507712
4.120000e+00 9.116132e-02 -154.773376 9.993279e-01 154.141747 9.993279e-01 154.141747 9.116132e-02 -154.773376
4.130000e+00 9.113409e-02 -156.042649 9.993471e-01 153.638461 9.993471e-01 153.638461 9.113409e-02 -156.042649
4.140000e+00 9.111541e-02 -157.315246 9.993657e-01 153.135117 9.993657e-01 153.135117 9.111541e-02 -157.315246
4.150000e+00 9.110546e-02 -158.591280 9.993822e-01 152.631946 9.993822e-01 152.631946 9.110546e-02 -158.591280
4.160000e+00 9.110440e-02 -159.870351 9.993984e-01 152.128717 9.993984e-01 152.128717 9.110440e-02 -159.870351
4.170000e+00 9.111239e-02 -161.152516 9.994138e-01 151.625546 9.994138e-01 151.625546 9.111239e-02 -161.152516
4.180000e+00 9.112951e-02 -162.437488 9.994280e-01 151.122431 9.994280e-01 151.122431 9.112951e-02 -162.437488
4.190000e+00 9.115608e-02 -163.725154 9.994414e-01 150.619374 9.994414e-01 150.619374 9.115608e-02 -163.725154
4.200000e+00 9.119209e-02 -165.015340 9.994542e-01 150.116375 9.994542e-01 150.116375 9.119209e-02 -165.015340
4.210000e+00 9.123770e-02 -166.307933 9.994671e-01 149.613375 9.994671e-01 149.613375 9.123770e-02 -166.307933
4.220000e+00 9.129322e-02 -167.602760 9.994798e-01 149.110433 9.994798e-01 149.110433 9.129322e-02 -167.602760
4.230000e+00 9.135859e-02 -168.899650 9.994924e-01 148.607548 9.994924e-01 148.607548 9.135859e-02 -168.899650
4.240000e+00 9.143396e-02 -170.198374 9.995053e-01 148.104605 9.995053e-01 148.104605 9.143396e-02 -170.198374
4.250000e+00 9.151943e-02 -171.498873 9.995179e-01 147.601720 9.995179e-01 147.601720 9.151943e-02 -171.498873
4.260000e+00 9.161523e-02 -172.800920 9.995319e-01 147.098835 9.995319e-01 147.098835 9.161523e-02 -172.800920
4.270000e+00 9.172136e-02 -174.104284 9.995453e-01 146.595893 9.995453e-01 146.595893 9.172136e-02 -174.104284
4.280000e+00 9.183798e-02 -175.408909 9.995594e-01 146.093065 9.995594e-01 146.093065 9.183798e-02 -175.408909
4.290000e+00 9.196515e-02 -176.714565 9.995746e-01 145.590123 9.995746e-01 145.590123 9.196515e-02 -176.714565
4.300000e+00 9.210283e-02 -178.021081 9.995883e-01 145.087180 9.995883e-01 145.087180 9.210283e-02 -178.021081
4.310000e+00 9.225124e-02 -179.328227 9.996041e-01 144.584181 9.996041e-01 144.584181 9.225124e-02 -179.328227
4.320000e+00 9.241039e-02 179.364094 9.996193e-01 144.081124 9.996193e-01 144.081124 9.241039e-02 179.364094
4.330000e+00 9.258038e-02 178.056089 9.996347e-01 143.578010 9.996347e-01 143.578010 9.258038e-02 178.056089
4.340000e+00 9.276117e-02 176.748026 9.996513e-01 143.074838 9.996513e-01 143.074838 9.276117e-02 176.748026
4.350000e+00 9.295284e-02 175.439906 9.996667e-01 142.571552 9.996667e-01 142.571552 9.295284e-02 175.439906
4.360000e+00 9.315541e-02 174.132073 9.996829e-01 142.068208 9.996829e-01 142.068208 9.315541e-02 174.132073
4.370000e+00 9.336892e-02 172.824640 9.996976e-01 141.564808 9.996976e-01 141.564808 9.336892e-02 172.824640
4.380000e+00 9.359336e-02 171.517723 9.997124e-01 141.061292 9.997124e-01 141.061292 9.359336e-02 171.517723
4.390000e+00 9.382882e-02 170.211609 9.997274e-01 140.557663 9.997274e-01 140.557663 9.382882e-02 170.211609
4.400000e+00 9.407515e-02 168.906468 9.997407e-01 140.053975 9.997407e-01 140.053975 9.407515e-02 168.906468
4.410000e+00 9.433252e-02 167.602359 9.997530e-01 139.550231 9.997530e-01 139.550231 9.433252e-02 167.602359
4.420000e+00 9.460083e-02 166.299625 9.997651e-01 139.046314 9.997651e-01 139.046314 9.460083e-02 166.299625
4.430000e+00 9.488002e-02 164.998209 9.997743e-01 138.542341 9.997743e-01 138.542341 9.488002e-02 164.998209
4.440000e+00 9.517004e-02 163.698454 9.997828e-01 138.038253 9.997828e-01 138.038253 9.517004e-02 163.698454
4.450000e+00 9.547096e-02 162.400533 9.997901e-01 137.534050 9.997901e-01 137.534050 9.547096e-02 162.400533
4.460000e+00 9.578273e-02 161.104559 9.997940e-01 137.029847 9.997940e-01 137.029847 9.578273e-02 161.104559
4.470000e+00 9.610531e-02 159.810591 9.997975e-01 136.525529 9.997975e-01 136.525529 9.610531e-02 159.810591
4.480000e+00 9.643852e-02 158.518973 9.997985e-01 136.021155 9.997985e-01 136.021155 9.643852e-02 158.518973
4.490000e+00 9.678243e-02 157.229703 9.997970e-01 135.516723 9.997970e-01 135.516723 9.678243e-02 157.229703
4.500000e+00 9.713693e-02 155.943069 9.997931e-01 135.012176 9.997931e-01 135.012176 9.713693e-02 155.943069
4.510000e+00 9.750194e-02 154.659071 9.997862e-01 134.507687 9.997862e-01 134.507687 9.750194e-02 154.659071
4.520000e+00 9.787739e-02 153.377937 9.997776e-01 134.003140 9.997776e-01 134.003140 9.787739e-02 153.377937
4.530000e+00 9.826323e-02 152.099783 9.997666e-01 133.498593 9.997666e-01 133.498593 9.826323e-02 152.099783
4.540000e+00 9.865934e-02 150.824780 9.997524e-01 132.993989 9.997524e-01 132.993989 9.865934e-02 150.824780
4.550000e+00 9.906562e-02 149.552871 9.997359e-01 132.489443 9.997359e-01 132.489443 9.906562e-02 149.552871
4.560000e+00 9.948203e-02 148.284399 9.997169e-01 131.984896 9.997169e-01 131.984896 9.948203e-02 148.284399
4.570000e+00 9.990850e-02 147.019481 9.996946e-01 131.480349 9.996946e-01 131.480349 9.990850e-02 147.019481
4.580000e+00 1.003448e-01 145.758057 9.996712e-01 130.975803 9.996712e-01 130.975803 1.003448e-01 145.758057
4.590000e+00 1.007909e-01 144.500357 9.996443e-01 130.471428 9.996443e-01 130.471428 1.007909e-01 144.500357
4.600000e+00 1.012467e-01 143.246382 9.996161e-01 129.966996 9.996161e-01 129.966996 1.012467e-01 143.246382
4.610000e+00 1.017121e-01 141.996360 9.995849e-01 129.462679 9.995849e-01 129.462679 1.017121e-01 141.996360
4.620000e+00 1.021869e-01 140.750291 9.995522e-01 128.958418 9.995522e-01 128.958418 1.021869e-01 140.750291
4.630000e+00 1.026710e-01 139.508290 9.995163e-01 128.454273 9.995163e-01 128.454273 1.026710e-01 139.508290
4.640000e+00 1.031644e-01 138.270358 9.994800e-01 127.950185 9.994800e-01 127.950185 1.031644e-01 138.270358
4.650000e+00 1.036669e-01 137.036780 9.994417e-01 127.446154 9.994417e-01 127.446154 1.036669e-01 137.036780
4.660000e+00 1.041783e-01 135.807327 9.994020e-01 126.942237 9.994020e-01 126.942237 1.041783e-01 135.807327
4.670000e+00 1.046984e-01 134.582286 9.993613e-01 126.438435 9.993613e-01 126.438435 1.046984e-01 134.582286
4.680000e+00 1.052273e-01 133.361656 9.993189e-01 125.934691 9.993189e-01 125.934691 1.052273e-01 133.361656
4.690000e+00 1.057648e-01 132.145496 9.992761e-01 125.431061 9.992761e-01 125.431061 1.057648e-01 132.145496
4.700000e+00 1.063106e-01 130.933805 9.992326e-01 124.927488 9.992326e-01 124.927488 1.063106e-01 130.933805
4.710000e+00 1.068647e-01 129.726640 9.991883e-01 124.424030 9.991883e-01 124.424030 1.068647e-01 129.726640
4.720000e+00 1.074269e-01 128.524059 9.991438e-01 123.920630 9.991438e-01 123.920630 1.074269e-01 128.524059
4.730000e+00 1.079970e-01 127.326119 9.990988e-01 123.417344 9.990988e-01 123.417344 1.079970e-01 127.326119
4.740000e+00 1.085749e-01 126.132762 9.990526e-01 122.914057 9.990526e-01 122.914057 1.085749e-01 126.132762
4.750000e+00 1.091606e-01 124.944104 9.990069e-01 122.410943 9.990069e-01 122.410943 1.091606e-01 124.944104
4.760000e+00 1.097536e-01 123.760144 9.989619e-01 121.907829 9.989619e-01 121.907829 1.097536e-01 123.760144
4.770000e+00 1.103540e-01 122.580883 9.989164e-01 121.404829 9.989164e-01 121.404829 1.103540e-01 122.580883
4.780000e+00 1.109615e-01 121.406319 9.988704e-01 120.901887 9.988704e-01 120.901887 1.109615e-01 121.406319
4.790000e+00 1.115761e-01 120.236511 9.988253e-01 120.398887 9.988253e-01 120.398887 1.115761e-01 120.236511
4.800000e+00 1.121975e-01 119.071344 9.987800e-01 119.896002 9.987800e-01 119.896002 1.121975e-01 119.071344
4.810000e+00 1.128256e-01 117.910990 9.987352e-01 119.393117 9.987352e-01 119.393117 1.128256e-01 117.910990
4.820000e+00 1.134604e-01 116.755277 9.986899e-01 118.890232 9.986899e-01 118.890232 1.134604e-01 116.755277
4.830000e+00 1.141008e-01 115.604491 9.986447e-01 118.387347 9.986447e-01 118.387347 1.141008e-01 115.604491
4.840000e+00 1.147481e-01 114.458232 9.986003e-01 117.884519 9.986003e-01 117.884519 1.147481e-01 114.458232
4.850000e+00 1.154007e-01 113.316785 9.985545e-01 117.381692 9.985545e-01 117.381692 1.154007e-01 113.316785
4.860000e+00 1.160600e-01 112.179865 9.985101e-01 116.878807 9.985101e-01 116.878807 1.160600e-01 112.179865
4.870000e+00 1.167247e-01 111.047700 9.984648e-01 116.375921 9.984648e-01 116.375921 1.167247e-01 111.047700
4.880000e+00 1.173949e-01 109.920120 9.984181e-01 115.873036 9.984181e-01 115.873036 1.173949e-01 109.920120
4.890000e+00 1.180694e-01 108.797409 9.983724e-01 115.370151 9.983724e-01 115.370151 1.180694e-01 108.797409
4.900000e+00 1.187503e-01 107.679110 9.983261e-01 114.867209 9.983261e-01 114.867209 1.187503e-01 107.679110
4.910000e+00 1.194352e-01 106.565509 9.982785e-01 114.364267 9.982785e-01 114.364267 1.194352e-01 106.565509
4.920000e+00 1.201255e-01 105.456435 9.982303e-01 113.861267 9.982303e-01 113.861267 1.201255e-01 105.456435
4.930000e+00 1.208206e-01 104.351829 9.981803e-01 113.358267 9.981803e-01 113.358267 1.208206e-01 104.351829
4.940000e+00 1.215198e-01 103.251808 9.981305e-01 112.855325 9.981305e-01 112.855325 1.215198e-01 103.251808
4.950000e+00 1.222236e-01 102.156198 9.980793e-01 112.352211 9.980793e-01 112.352211 1.222236e-01 102.156198
4.960000e+00 1.229303e-01 101.065171 9.980255e-01 111.849211 9.980255e-01 111.849211 1.229303e-01 101.065171
4.970000e+00 1.236423e-01 99.978442 9.979714e-01 111.346154 9.979714e-01 111.346154 1.236423e-01 99.978442
4.980000e+00 1.243580e-01 98.896125 9.979161e-01 110.843040 9.979161e-01 110.843040 1.243580e-01 98.896125
4.990000e+00 1.250766e-01 97.818220 9.978580e-01 110.340040 9.978580e-01 110.340040 1.250766e-01 97.818220
5.000000e+00 1.257986e-01 96.744554 9.977994e-01 109.836983 9.977994e-01 109.836983 1.257986e-01 96.744554
5.010000e+00 1.265242e-01 95.675243 9.977386e-01 109.333984 9.977386e-01 109.333984 1.265242e-01 95.675243
5.020000e+00 1.272527e-01 94.610114 9.976753e-01 108.830927 9.976753e-01 108.830927 1.272527e-01 94.610114
5.030000e+00 1.279845e-01 93.549168 9.976105e-01 108.327927 9.976105e-01 108.327927 1.279845e-01 93.549168
5.040000e+00 1.287188e-01 92.492348 9.975442e-01 107.824985 9.975442e-01 107.824985 1.287188e-01 92.492348
5.050000e+00 1.294559e-01 91.439710 9.974763e-01 107.322042 9.974763e-01 107.322042 1.294559e-01 91.439710
5.060000e+00 1.301950e-01 90.391082 9.974058e-01 106.819272 9.974058e-01 106.819272 1.301950e-01 90.391082
5.070000e+00 1.309375e-01 89.346523 9.973339e-01 106.316444 9.973339e-01 106.316444 1.309375e-01 89.346523
5.080000e+00 1.316816e-01 88.305974 9.972596e-01 105.813731 9.972596e-01 105.813731 1.316816e-01 88.305974
5.090000e+00 1.324274e-01 87.269322 9.971837e-01 105.311075 9.971837e-01 105.311075 1.324274e-01 87.269322
5.100000e+00 1.331752e-01 86.236565 9.971068e-01 104.808591 9.971068e-01 104.808591 1.331752e-01 86.236565
5.110000e+00 1.339252e-01 85.207648 9.970275e-01 104.306107 9.970275e-01 104.306107 1.339252e-01 85.207648
5.120000e+00 1.346756e-01 84.182512 9.969470e-01 103.803738 9.969470e-01 103.803738 1.346756e-01 84.182512
5.130000e+00 1.354286e-01 83.161157 9.968651e-01 103.301483 9.968651e-01 103.301483 1.354286e-01 83.161157
5.140000e+00 1.361823e-01 82.143469 9.967811e-01 102.799343 9.967811e-01 102.799343 1.361823e-01 82.143469
5.150000e+00 1.369379e-01 81.129506 9.966966e-01 102.297317 9.966966e-01 102.297317 1.369379e-01 81.129506
5.160000e+00 1.376945e-01 80.119152 9.966117e-01 101.795406 9.966117e-01 101.795406 1.376945e-01 80.119152
5.170000e+00 1.384512e-01 79.112236 9.965252e-01 101.293610 9.965252e-01 101.293610 1.384512e-01 79.112236
5.180000e+00 1.392093e-01 78.108930 9.964374e-01 100.791928 9.964374e-01 100.791928 1.392093e-01 78.108930
5.190000e+00 1.399677e-01 77.109004 9.963502e-01 100.290361 9.963502e-01 100.290361 1.399677e-01 77.109004
5.200000e+00 1.407266e-01 76.112516 9.962609e-01 99.788965 9.962609e-01 99.788965 1.407266e-01 76.112516
5.210000e+00 1.414860e-01 75.119351 9.961724e-01 99.287684 9.961724e-01 99.287684 1.414860e-01 75.119351
5.220000e+00 1.422451e-01 74.129451 9.960835e-01 98.786461 9.960835e-01 98.786461 1.422451e-01 74.129451
5.230000e+00 1.430048e-01 73.142818 9.959947e-01 98.285409 9.959947e-01 98.285409 1.430048e-01 73.142818
5.240000e+00 1.437652e-01 72.159508 9.959046e-01 97.784472 9.959046e-01 97.784472 1.437652e-01 72.159508
5.250000e+00 1.445244e-01 71.179177 9.958156e-01 97.283650 9.958156e-01 97.283650 1.445244e-01 71.179177
5.260000e+00 1.452834e-01 70.201940 9.957273e-01 96.782885 9.957273e-01 96.782885 1.452834e-01 70.201940
5.270000e+00 1.460431e-01 69.227855 9.956380e-01 96.282292 9.956380e-01 96.282292 1.460431e-01 69.227855
5.280000e+00 1.468006e-01 68.256577 9.955495e-01 95.781756 9.955495e-01 95.781756 1.468006e-01 68.256577
5.290000e+00 1.475587e-01 67.288393 9.954620e-01 95.281334 9.954620e-01 95.281334 1.475587e-01 67.288393
5.300000e+00 1.483156e-01 66.323016 9.953744e-01 94.781028 9.953744e-01 94.781028 1.483156e-01 66.323016
5.310000e+00 1.490712e-01 65.360390 9.952876e-01 94.280778 9.952876e-01 94.280778 1.490712e-01 65.360390
5.320000e+00 1.498263e-01 64.400685 9.952007e-01 93.780586 9.952007e-01 93.780586 1.498263e-01 64.400685
5.330000e+00 1.505799e-01 63.443617 9.951146e-01 93.280508 9.951146e-01 93.280508 1.505799e-01 63.443617
5.340000e+00 1.513330e-01 62.489355 9.950294e-01 92.780431 9.950294e-01 92.780431 1.513330e-01 62.489355
5.350000e+00 1.520834e-01 61.537501 9.949440e-01 92.280468 9.949440e-01 92.280468 1.520834e-01 61.537501
5.360000e+00 1.528330e-01 60.588396 9.948604e-01 91.780562 9.948604e-01 91.780562 1.528330e-01 60.588396
5.370000e+00 1.535815e-01 59.641927 9.947765e-01 91.280714 9.947765e-01 91.280714 1.535815e-01 59.641927
5.380000e+00 1.543272e-01 58.697693 9.946924e-01 90.780923 9.946924e-01 90.780923 1.543272e-01 58.697693
5.390000e+00 1.550716e-01 57.755979 9.946090e-01 90.281132 9.946090e-01 90.281132 1.550716e-01 57.755979
5.400000e+00 1.558136e-01 56.816644 9.945262e-01 89.781455 9.945262e-01 89.781455 1.558136e-01 56.816644
5.410000e+00 1.565538e-01 55.879749 9.944441e-01 89.281779 9.944441e-01 89.281779 1.565538e-01 55.879749
5.420000e+00 1.572915e-01 54.945014 9.943616e-01 88.782102 9.943616e-01 88.782102 1.572915e-01 54.945014
5.430000e+00 1.580270e-01 54.012645 9.942797e-01 88.282540 9.942797e-01 88.282540 1.580270e-01 54.012645
5.440000e+00 1.587602e-01 53.082506 9.941972e-01 87.782978 9.941972e-01 87.782978 1.587602e-01 53.082506
5.450000e+00 1.594909e-01 52.154572 9.941152e-01 87.283416 9.941152e-01 87.283416 1.594909e-01 52.154572
5.460000e+00 1.602180e-01 51.228546 9.940335e-01 86.783969 9.940335e-01 86.783969 1.602180e-01 51.228546
5.470000e+00 1.609430e-01 50.304738 9.939512e-01 86.284522 9.939512e-01 86.284522 1.609430e-01 50.304738
5.480000e+00 1.616656e-01 49.383101 9.938690e-01 85.785075 9.938690e-01 85.785075 1.616656e-01 49.383101
5.490000e+00 1.623845e-01 48.463360 9.937860e-01 85.285742 9.937860e-01 85.285742 1.623845e-01 48.463360
5.500000e+00 1.631003e-01 47.545705 9.937031e-01 84.786409 9.937031e-01 84.786409 1.631003e-01 47.545705
5.510000e+00 1.638131e-01 46.629809 9.936201e-01 84.287134 9.936201e-01 84.287134 1.638131e-01 46.629809
5.520000e+00 1.645219e-01 45.715878 9.935359e-01 83.787916 9.935359e-01 83.787916 1.645219e-01 45.715878
5.530000e+00 1.652285e-01 44.803592 9.934523e-01 83.288755 9.934523e-01 83.288755 1.652285e-01 44.803592
5.540000e+00 1.659309e-01 43.893386 9.933675e-01 82.789651 9.933675e-01 82.789651 1.659309e-01 43.893386
5.550000e+00 1.666295e-01 42.984932 9.932830e-01 82.290662 9.932830e-01 82.290662 1.666295e-01 42.984932
5.560000e+00 1.673246e-01 42.077923 9.931979e-01 81.791673 9.931979e-01 81.791673 1.673246e-01 42.077923
5.570000e+00 1.680162e-01 41.173028 9.931119e-01 81.292742 9.931119e-01 81.292742 1.680162e-01 41.173028
5.580000e+00 1.687035e-01 40.269422 9.930258e-01 80.793925 9.930258e-01 80.793925 1.687035e-01 40.269422
5.590000e+00 1.693870e-01 39.368016 9.929395e-01 80.295222 9.929395e-01 80.295222 1.693870e-01 39.368016
5.600000e+00 1.700665e-01 38.467762 9.928529e-01 79.796577 9.928529e-01 79.796577 1.700665e-01 38.467762
5.610000e+00 1.707415e-01 37.569043 9.927667e-01 79.298046 9.927667e-01 79.298046 1.707415e-01 37.569043
5.620000e+00 1.714128e-01 36.671820 9.926787e-01 78.799630 9.926787e-01 78.799630 1.714128e-01 36.671820
5.630000e+00 1.720800e-01 35.775989 9.925919e-01 78.301214 9.925919e-01 78.301214 1.720800e-01 35.775989
5.640000e+00 1.727423e-01 34.881997 9.925048e-01 77.803028 9.925048e-01 77.803028 1.727423e-01 34.881997
5.650000e+00 1.734006e-01 33.989128 9.924184e-01 77.304898 9.924184e-01 77.304898 1.734006e-01 33.989128
5.660000e+00 1.740540e-01 33.097755 9.923313e-01 76.806883 9.923313e-01 76.806883 1.740540e-01 33.097755
5.670000e+00 1.747029e-01 32.207654 9.922446e-01 76.308926 9.922446e-01 76.308926 1.747029e-01 32.207654
5.680000e+00 1.753473e-01 31.318870 9.921578e-01 75.811140 9.921578e-01 75.811140 1.753473e-01 31.318870
5.690000e+00 1.759875e-01 30.431255 9.920717e-01 75.313411 9.920717e-01 75.313411 1.759875e-01 30.431255
5.700000e+00 1.766215e-01 29.545113 9.919864e-01 74.815798 9.919864e-01 74.815798 1.766215e-01 29.545113
5.710000e+00 1.772516e-01 28.659956 9.919021e-01 74.318356 9.919021e-01 74.318356 1.772516e-01 28.659956
5.720000e+00 1.778766e-01 27.776014 9.918183e-01 73.820971 9.918183e-01 73.820971 1.778766e-01 27.776014
5.730000e+00 1.784971e-01 26.893126 9.917349e-01 73.323758 9.917349e-01 73.323758 1.784971e-01 26.893126
5.740000e+00 1.791119e-01 26.011436 9.916527e-01 72.826545 9.916527e-01 72.826545 1.791119e-01 26.011436
5.750000e+00 1.797213e-01 25.130817 9.915714e-01 72.329505 9.915714e-01 72.329505 1.797213e-01 25.130817
5.760000e+00 1.803260e-01 24.251115 9.914914e-01 71.832578 9.914914e-01 71.832578 1.803260e-01 24.251115
5.770000e+00 1.809257e-01 23.372410 9.914127e-01 71.335652 9.914127e-01 71.335652 1.809257e-01 23.372410
5.780000e+00 1.815199e-01 22.494678 9.913344e-01 70.838898 9.913344e-01 70.838898 1.815199e-01 22.494678
5.790000e+00 1.821083e-01 21.617927 9.912589e-01 70.342200 9.912589e-01 70.342200 1.821083e-01 21.617927
5.800000e+00 1.826912e-01 20.742029 9.911834e-01 69.845618 9.911834e-01 69.845618 1.826912e-01 20.742029
5.810000e+00 1.832694e-01 19.866910 9.911102e-01 69.349093 9.911102e-01 69.349093 1.832694e-01 19.866910
5.820000e+00 1.838413e-01 18.992691 9.910376e-01 68.852682 9.910376e-01 68.852682 1.838413e-01 18.992691
5.830000e+00 1.844076e-01 18.119292 9.909667e-01 68.356271 9.909667e-01 68.356271 1.844076e-01 18.119292
5.840000e+00 1.849677e-01 17.246660 9.908973e-01 67.859975 9.908973e-01 67.859975 1.849677e-01 17.246660
5.850000e+00 1.855231e-01 16.374681 9.908288e-01 67.363737 9.908288e-01 67.363737 1.855231e-01 16.374681
5.860000e+00 1.860723e-01 15.503430 9.907626e-01 66.867498 9.907626e-01 66.867498 1.860723e-01 15.503430
5.870000e+00 1.866150e-01 14.632895 9.906978e-01 66.371316 9.906978e-01 66.371316 1.866150e-01 14.632895
5.880000e+00 1.871524e-01 13.762922 9.906344e-01 65.875250 9.906344e-01 65.875250 1.871524e-01 13.762922
5.890000e+00 1.876833e-01 12.893642 9.905719e-01 65.379183 9.905719e-01 65.379183 1.876833e-01 12.893642
5.900000e+00 1.882088e-01 12.024894 9.905108e-01 64.883116 9.905108e-01 64.883116 1.882088e-01 12.024894
5.910000e+00 1.887277e-01 11.156737 9.904519e-01 64.387164 9.904519e-01 64.387164 1.887277e-01 11.156737
5.920000e+00 1.892402e-01 10.289119 9.903935e-01 63.891211 9.903935e-01 63.891211 1.892402e-01 10.289119
5.930000e+00 1.897468e-01 9.421982 9.903364e-01 63.395259 9.903364e-01 63.395259 1.897468e-01 9.421982
5.940000e+00 1.902469e-01 8.555337 9.902806e-01 62.899421 9.902806e-01 62.899421 1.902469e-01 8.555337
5.950000e+00 1.907410e-01 7.689128 9.902269e-01 62.403526 9.902269e-01 62.403526 1.907410e-01 7.689128
5.960000e+00 1.912285e-01 6.823383 9.901732e-01 61.907689 9.901732e-01 61.907689 1.912285e-01 6.823383
5.970000e+00 1.917096e-01 5.958016 9.901210e-01 61.411908 9.901210e-01 61.411908 1.917096e-01 5.958016
5.980000e+00 1.921848e-01 5.092987 9.900701e-01 60.916128 9.900701e-01 60.916128 1.921848e-01 5.092987
5.990000e+00 1.926524e-01 4.228356 9.900197e-01 60.420405 9.900197e-01 60.420405 1.926524e-01 4.228356
6.000000e+00 1.931148e-01 3.364027 9.899709e-01 59.924624 9.899709e-01 59.924624 1.931148e-01 3.364027
6.010000e+00 1.935692e-01 2.500021 9.899222e-01 59.428959 9.899222e-01 59.428959 1.935692e-01 2.500021
6.020000e+00 1.940181e-01 1.636269 9.898748e-01 58.933293 9.898748e-01 58.933293 1.940181e-01 1.636269
6.030000e+00 1.944597e-01 0.772772 9.898288e-01 58.437570 9.898288e-01 58.437570 1.944597e-01 0.772772
6.040000e+00 1.948952e-01 -0.090504 9.897826e-01 57.942019 9.897826e-01 57.942019 1.948952e-01 -0.090504
6.050000e+00 1.953241e-01 -0.953580 9.897380e-01 57.446410 9.897380e-01 57.446410 1.953241e-01 -0.953580
6.060000e+00 1.957464e-01 -1.816478 9.896940e-01 56.950905 9.896940e-01 56.950905 1.957464e-01 -1.816478
6.070000e+00 1.961614e-01 -2.679234 9.896513e-01 56.455428 9.896513e-01 56.455428 1.961614e-01 -2.679234
6.080000e+00 1.965705e-01 -3.541865 9.896100e-01 55.959969 9.896100e-01 55.959969 1.965705e-01 -3.541865
6.090000e+00 1.969717e-01 -4.404412 9.895681e-01 55.464549 9.895681e-01 55.464549 1.969717e-01 -4.404412
6.100000e+00 1.973673e-01 -5.266842 9.895285e-01 54.969193 9.895285e-01 54.969193 1.973673e-01 -5.266842
6.110000e+00 1.977555e-01 -6.129285 9.894891e-01 54.473842 9.894891e-01 54.473842 1.977555e-01 -6.129285
6.120000e+00 1.981374e-01 -6.991649 9.894509e-01 53.978572 9.894509e-01 53.978572 1.981374e-01 -6.991649
6.130000e+00 1.985122e-01 -7.854077 9.894138e-01 53.483347 9.894138e-01 53.483347 1.985122e-01 -7.854077
6.140000e+00 1.988800e-01 -8.716510 9.893780e-01 52.988220 9.893780e-01 52.988220 1.988800e-01 -8.716510
6.150000e+00 1.992410e-01 -9.579041 9.893427e-01 52.493115 9.893427e-01 52.493115 1.992410e-01 -9.579041
6.160000e+00 1.995953e-01 -10.441629 9.893095e-01 51.998068 9.893095e-01 51.998068 1.995953e-01 -10.441629
6.170000e+00 1.999430e-01 -11.304371 9.892769e-01 51.503056 9.892769e-01 51.503056 1.999430e-01 -11.304371
6.180000e+00 2.002840e-01 -12.167200 9.892464e-01 51.008118 9.892464e-01 51.008118 2.002840e-01 -12.167200
6.190000e+00 2.006177e-01 -13.030263 9.892166e-01 50.513220 9.892166e-01 50.513220 2.006177e-01 -13.030263
6.200000e+00 2.009449e-01 -13.893510 9.891883e-01 50.018368 9.891883e-01 50.018368 2.009449e-01 -13.893510
6.210000e+00 2.012648e-01 -14.757009 9.891622e-01 49.523567 9.891622e-01 49.523567 2.012648e-01 -14.757009
6.220000e+00 2.015783e-01 -15.620749 9.891376e-01 49.028824 9.891376e-01 49.028824 2.015783e-01 -15.620749
6.230000e+00 2.018845e-01 -16.484821 9.891145e-01 48.534109 9.891145e-01 48.534109 2.018845e-01 -16.484821
6.240000e+00 2.021843e-01 -17.349151 9.890930e-01 48.039463 9.890930e-01 48.039463 2.021843e-01 -17.349151
6.250000e+00 2.024768e-01 -18.213887 9.890738e-01 47.544892 9.890738e-01 47.544892 2.024768e-01 -18.213887
6.260000e+00 2.027630e-01 -19.078956 9.890567e-01 47.050280 9.890567e-01 47.050280 2.027630e-01 -19.078956
6.270000e+00 2.030417e-01 -19.944472 9.890399e-01 46.555726 9.890399e-01 46.555726 2.030417e-01 -19.944472
6.280000e+00 2.033139e-01 -20.810371 9.890267e-01 46.061229 9.890267e-01 46.061229 2.033139e-01 -20.810371
6.290000e+00 2.035796e-01 -21.676735 9.890150e-01 45.566709 9.890150e-01 45.566709 2.035796e-01 -21.676735
6.300000e+00 2.038377e-01 -22.543632 9.890056e-01 45.072264 9.890056e-01 45.072264 2.038377e-01 -22.543632
6.310000e+00 2.040890e-01 -23.411038 9.889977e-01 44.577812 9.889977e-01 44.577812 2.040890e-01 -23.411038
6.320000e+00 2.043334e-01 -24.278978 9.889921e-01 44.083367 9.889921e-01 44.083367 2.043334e-01 -24.278978
6.330000e+00 2.045709e-01 -25.147502 9.889886e-01 43.588887 9.889886e-01 43.588887 2.045709e-01 -25.147502
6.340000e+00 2.048012e-01 -26.016667 9.889874e-01 43.094430 9.889874e-01 43.094430 2.048012e-01 -26.016667
6.350000e+00 2.050252e-01 -26.886371 9.889877e-01 42.599996 9.889877e-01 42.599996 2.050252e-01 -26.886371
6.360000e+00 2.052416e-01 -27.756786 9.889909e-01 42.105557 9.889909e-01 42.105557 2.052416e-01 -27.756786
6.370000e+00 2.054514e-01 -28.627853 9.889955e-01 41.611077 9.889955e-01 41.611077 2.054514e-01 -28.627853
6.380000e+00 2.056543e-01 -29.499666 9.890030e-01 41.116603 9.890030e-01 41.116603 2.056543e-01 -29.499666
6.390000e+00 2.058501e-01 -30.372218 9.890118e-01 40.622100 9.890118e-01 40.622100 2.058501e-01 -30.372218
6.400000e+00 2.060381e-01 -31.245423 9.890228e-01 40.127575 9.890228e-01 40.127575 2.060381e-01 -31.245423
6.410000e+00 2.062210e-01 -32.119504 9.890351e-01 39.633038 9.890351e-01 39.633038 2.062210e-01 -32.119504
6.420000e+00 2.063956e-01 -32.994342 9.890495e-01 39.138409 9.890495e-01 39.138409 2.063956e-01 -32.994342
6.430000e+00 2.065631e-01 -33.870085 9.890658e-01 38.643820 9.890658e-01 38.643820 2.065631e-01 -33.870085
6.440000e+00 2.067248e-01 -34.746481 9.890841e-01 38.149163 9.890841e-01 38.149163 2.067248e-01 -34.746481
6.450000e+00 2.068787e-01 -35.623897 9.891037e-01 37.654425 9.891037e-01 37.654425 2.068787e-01 -35.623897
6.460000e+00 2.070255e-01 -36.502253 9.891259e-01 37.159676 9.891259e-01 37.159676 2.070255e-01 -36.502253
6.470000e+00 2.071655e-01 -37.381451 9.891497e-01 36.664916 9.891497e-01 36.664916 2.071655e-01 -37.381451
6.480000e+00 2.072998e-01 -38.261606 9.891748e-01 36.170058 9.891748e-01 36.170058 2.072998e-01 -38.261606
6.490000e+00 2.074260e-01 -39.142534 9.892014e-01 35.675194 9.892014e-01 35.675194 2.074260e-01 -39.142534
6.500000e+00 2.075449e-01 -40.024757 9.892291e-01 35.180250 9.892291e-01 35.180250 2.075449e-01 -40.024757
6.510000e+00 2.076587e-01 -40.907806 9.892582e-01 34.685318 9.892582e-01 34.685318 2.076587e-01 -40.907806
6.520000e+00 2.077646e-01 -41.791925 9.892895e-01 34.190323 9.892895e-01 34.190323 2.077646e-01 -41.791925
6.530000e+00 2.078636e-01 -42.677231 9.893217e-01 33.695224 9.893217e-01 33.695224 2.078636e-01 -42.677231
6.540000e+00 2.079562e-01 -43.563242 9.893556e-01 33.200154 9.893556e-01 33.200154 2.079562e-01 -43.563242
6.550000e+00 2.080425e-01 -44.450627 9.893902e-01 32.704987 9.893902e-01 32.704987 2.080425e-01 -44.450627
6.560000e+00 2.081207e-01 -45.339113 9.894258e-01 32.209819 9.894258e-01 32.209819 2.081207e-01 -45.339113
6.570000e+00 2.081939e-01 -46.228595 9.894632e-01 31.714578 9.894632e-01 31.714578 2.081939e-01 -46.228595
6.580000e+00 2.082595e-01 -47.119384 9.895021e-01 31.219307 9.895021e-01 31.219307 2.082595e-01 -47.119384
6.590000e+00 2.083192e-01 -48.011377 9.895426e-01 30.723974 9.895426e-01 30.723974 2.083192e-01 -48.011377
6.600000e+00 2.083724e-01 -48.904687 9.895835e-01 30.228657 9.895835e-01 30.228657 2.083724e-01 -48.904687
6.610000e+00 2.084192e-01 -49.798833 9.896265e-01 29.733261 9.896265e-01 29.733261 2.084192e-01 -49.798833
6.620000e+00 2.084599e-01 -50.694504 9.896700e-01 29.237807 9.896700e-01 29.237807 2.084599e-01 -50.694504
6.630000e+00 2.084926e-01 -51.591480 9.897149e-01 28.742359 9.897149e-01 28.742359 2.084926e-01 -51.591480
6.640000e+00 2.085208e-01 -52.489758 9.897616e-01 28.246802 9.897616e-01 28.246802 2.085208e-01 -52.489758
6.650000e+00 2.085425e-01 -53.389130 9.898095e-01 27.751262 9.898095e-01 27.751262 2.085425e-01 -53.389130
6.660000e+00 2.085573e-01 -54.290123 9.898585e-01 27.255705 9.898585e-01 27.255705 2.085573e-01 -54.290123
6.670000e+00 2.085667e-01 -55.192589 9.899086e-01 26.760091 9.899086e-01 26.760091 2.085667e-01 -55.192589
6.680000e+00 2.085698e-01 -56.096292 9.899603e-01 26.264443 9.899603e-01 26.264443 2.085698e-01 -56.096292
6.690000e+00 2.085675e-01 -57.001308 9.900136e-01 25.768714 9.900136e-01 25.768714 2.085675e-01 -57.001308
6.700000e+00 2.085585e-01 -57.907985 9.900683e-01 25.272962 9.900683e-01 25.272962 2.085585e-01 -57.907985
6.710000e+00 2.085443e-01 -58.816238 9.901245e-01 24.777193 9.901245e-01 24.777193 2.085443e-01 -58.816238
6.720000e+00 2.085239e-01 -59.725808 9.901821e-01 24.281327 9.901821e-01 24.281327 2.085239e-01 -59.725808
6.730000e+00 2.084985e-01 -60.637097 9.902410e-01 23.785449 9.902410e-01 23.785449 2.084985e-01 -60.637097
6.740000e+00 2.084669e-01 -61.549991 9.903011e-01 23.289537 9.903011e-01 23.289537 2.084669e-01 -61.549991
6.750000e+00 2.084292e-01 -62.464374 9.903639e-01 22.793573 9.903639e-01 22.793573 2.084292e-01 -62.464374
6.760000e+00 2.083867e-01 -63.380477 9.904271e-01 22.297523 9.904271e-01 22.297523 2.083867e-01 -63.380477
6.770000e+00 2.083384e-01 -64.298126 9.904924e-01 21.801434 9.904924e-01 21.801434 2.083384e-01 -64.298126
6.780000e+00 2.082848e-01 -65.217551 9.905600e-01 21.305269 9.905600e-01 21.305269 2.082848e-01 -65.217551
6.790000e+00 2.082256e-01 -66.138638 9.906280e-01 20.809036 9.906280e-01 20.809036 2.082256e-01 -66.138638
6.800000e+00 2.081616e-01 -67.061559 9.906978e-01 20.312740 9.906978e-01 20.312740 2.081616e-01 -67.061559
6.810000e+00 2.080913e-01 -67.986141 9.907696e-01 19.816399 9.907696e-01 19.816399 2.080913e-01 -67.986141
6.820000e+00 2.080173e-01 -68.912613 9.908424e-01 19.319936 9.908424e-01 19.319936 2.080173e-01 -68.912613
6.830000e+00 2.079374e-01 -69.840920 9.909171e-01 18.823480 9.909171e-01 18.823480 2.079374e-01 -69.840920
6.840000e+00 2.078522e-01 -70.770945 9.909932e-01 18.326897 9.909932e-01 18.326897 2.078522e-01 -70.770945
6.850000e+00 2.077631e-01 -71.703032 9.910710e-01 17.830194 9.910710e-01 17.830194 2.077631e-01 -71.703032
6.860000e+00 2.076679e-01 -72.636839 9.911499e-01 17.333417 9.911499e-01 17.333417 2.076679e-01 -72.636839
6.870000e+00 2.075691e-01 -73.572708 9.912304e-01 16.836588 9.912304e-01 16.836588 2.075691e-01 -73.572708
6.880000e+00 2.074652e-01 -74.510526 9.913121e-01 16.339610 9.913121e-01 16.339610 2.074652e-01 -74.510526
6.890000e+00 2.073560e-01 -75.450234 9.913957e-01 15.842558 9.913957e-01 15.842558 2.073560e-01 -75.450234
6.900000e+00 2.072427e-01 -76.391947 9.914803e-01 15.345420 9.914803e-01 15.345420 2.072427e-01 -76.391947
6.910000e+00 2.071250e-01 -77.335723 9.915663e-01 14.848213 9.915663e-01 14.848213 2.071250e-01 -77.335723
6.920000e+00 2.070035e-01 -78.281562 9.916534e-01 14.350840 9.916534e-01 14.350840 2.070035e-01 -78.281562
6.930000e+00 2.068765e-01 -79.229406 9.917412e-01 13.853403 9.917412e-01 13.853403 2.068765e-01 -79.229406
6.940000e+00 2.067455e-01 -80.179370 9.918299e-01 13.355852 9.918299e-01 13.355852 2.067455e-01 -80.179370
6.950000e+00 2.066111e-01 -81.131454 9.919206e-01 12.858204 9.919206e-01 12.858204 2.066111e-01 -81.131454
6.960000e+00 2.064726e-01 -82.085658 9.920115e-01 12.360447 9.920115e-01 12.360447 2.064726e-01 -82.085658
6.970000e+00 2.063296e-01 -83.041982 9.921037e-01 11.862530 9.921037e-01 11.862530 2.063296e-01 -83.041982
6.980000e+00 2.061823e-01 -84.000483 9.921967e-01 11.364543 9.921967e-01 11.364543 2.061823e-01 -84.000483
6.990000e+00 2.060322e-01 -84.961219 9.922915e-01 10.866437 9.922915e-01 10.866437 2.060322e-01 -84.961219
7.000000e+00 2.058787e-01 -85.924189 9.923864e-01 10.368261 9.923864e-01 10.368261 2.058787e-01 -85.924189
7.010000e+00 2.057211e-01 -86.889279 9.924812e-01 9.869914 9.924812e-01 9.869914 2.057211e-01 -86.889279
7.020000e+00 2.055598e-01 -87.856718 9.925776e-01 9.371470 9.925776e-01 9.371470 2.055598e-01 -87.856718
7.030000e+00 2.053951e-01 -88.826392 9.926745e-01 8.872950 9.926745e-01 8.872950 2.053951e-01 -88.826392
7.040000e+00 2.052283e-01 -89.798357 9.927721e-01 8.374265 9.927721e-01 8.374265 2.052283e-01 -89.798357
7.050000e+00 2.050576e-01 -90.772615 9.928706e-01 7.875494 9.928706e-01 7.875494 2.050576e-01 -90.772615
7.060000e+00 2.048845e-01 -91.749221 9.929691e-01 7.376608 9.929691e-01 7.376608 2.048845e-01 -91.749221
7.070000e+00 2.047080e-01 -92.728234 9.930679e-01 6.877625 9.930679e-01 6.877625 2.047080e-01 -92.728234
7.080000e+00 2.045285e-01 -93.709539 9.931680e-01 6.378498 9.931680e-01 6.378498 2.045285e-01 -93.709539
7.090000e+00 2.043472e-01 -94.693250 9.932676e-01 5.879269 9.932676e-01 5.879269 2.043472e-01 -94.693250
7.100000e+00 2.041632e-01 -95.679425 9.933690e-01 5.379962 9.933690e-01 5.379962 2.041632e-01 -95.679425
7.110000e+00 2.039778e-01 -96.667950 9.934700e-01 4.880519 9.934700e-01 4.880519 2.039778e-01 -96.667950
7.120000e+00 2.037890e-01 -97.658995 9.935710e-01 4.380972 9.935710e-01 4.380972 2.037890e-01 -97.658995
7.130000e+00 2.035991e-01 -98.652446 9.936731e-01 3.881306 9.936731e-01 3.881306 2.035991e-01 -98.652446
7.140000e+00 2.034062e-01 -99.648419 9.937753e-01 3.381529 9.937753e-01 3.381529 2.034062e-01 -99.648419
7.150000e+00 2.032124e-01 -100.646912 9.938777e-01 2.881644 9.938777e-01 2.881644 2.032124e-01 -100.646912
7.160000e+00 2.030168e-01 -101.647869 9.939816e-01 2.381641 9.939816e-01 2.381641 2.030168e-01 -101.647869
7.170000e+00 2.028204e-01 -102.651405 9.940850e-01 1.881519 9.940850e-01 1.881519 2.028204e-01 -102.651405
7.180000e+00 2.026213e-01 -103.657576 9.941879e-01 1.381289 9.941879e-01 1.381289 2.026213e-01 -103.657576
7.190000e+00 2.024225e-01 -104.666211 9.942925e-01 0.880938 9.942925e-01 0.880938 2.024225e-01 -104.666211
7.200000e+00 2.022211e-01 -105.677596 9.943959e-01 0.380472 9.943959e-01 0.380472 2.022211e-01 -105.677596
7.210000e+00 2.020200e-01 -106.691445 9.945002e-01 -0.120114 9.945002e-01 -0.120114 2.020200e-01 -106.691445
7.220000e+00 2.018183e-01 -107.707929 9.946054e-01 -0.620820 9.946054e-01 -0.620820 2.018183e-01 -107.707929
7.230000e+00 2.016149e-01 -108.727221 9.947096e-01 -1.121651 9.947096e-01 -1.121651 2.016149e-01 -108.727221
7.240000e+00 2.014117e-01 -109.749092 9.948149e-01 -1.622600 9.948149e-01 -1.622600 2.014117e-01 -109.749092
7.250000e+00 2.012077e-01 -110.773655 9.949193e-01 -2.123677 9.949193e-01 -2.123677 2.012077e-01 -110.773655
7.260000e+00 2.010038e-01 -111.800853 9.950240e-01 -2.624881 9.950240e-01 -2.624881 2.010038e-01 -111.800853
7.270000e+00 2.007998e-01 -112.830860 9.951289e-01 -3.126208 9.951289e-01 -3.126208 2.007998e-01 -112.830860
7.280000e+00 2.005966e-01 -113.863444 9.952341e-01 -3.627656 9.952341e-01 -3.627656 2.005966e-01 -113.863444
7.290000e+00 2.003930e-01 -114.898836 9.953387e-01 -4.129239 9.953387e-01 -4.129239 2.003930e-01 -114.898836
7.300000e+00 2.001891e-01 -115.937093 9.954427e-01 -4.630955 9.954427e-01 -4.630955 2.001891e-01 -115.937093
7.310000e+00 1.999863e-01 -116.977986 9.955471e-01 -5.132794 9.955471e-01 -5.132794 1.999863e-01 -116.977986
7.320000e+00 1.997846e-01 -118.021571 9.956510e-01 -5.634757 9.956510e-01 -5.634757 1.997846e-01 -118.021571
7.330000e+00 1.995828e-01 -119.068078 9.957543e-01 -6.136871 9.957543e-01 -6.136871 1.995828e-01 -119.068078
7.340000e+00 1.993824e-01 -120.117164 9.958571e-01 -6.639097 9.958571e-01 -6.639097 1.993824e-01 -120.117164
7.350000e+00 1.991837e-01 -121.169229 9.959594e-01 -7.141449 9.959594e-01 -7.141449 1.991837e-01 -121.169229
7.360000e+00 1.989856e-01 -122.223930 9.960621e-01 -7.643899 9.960621e-01 -7.643899 1.989856e-01 -122.223930
7.370000e+00 1.987894e-01 -123.281438 9.961633e-01 -8.146503 9.961633e-01 -8.146503 1.987894e-01 -123.281438
7.380000e+00 1.985941e-01 -124.341582 9.962640e-01 -8.649228 9.962640e-01 -8.649228 1.985941e-01 -124.341582
7.390000e+00 1.984003e-01 -125.404762 9.963632e-01 -9.152136 9.963632e-01 -9.152136 1.984003e-01 -125.404762
7.400000e+00 1.982086e-01 -126.470521 9.964626e-01 -9.655067 9.964626e-01 -9.655067 1.982086e-01 -126.470521
7.410000e+00 1.980195e-01 -127.539145 9.965615e-01 -10.158186 9.965615e-01 -10.158186 1.980195e-01 -127.539145
7.420000e+00 1.978321e-01 -128.610576 9.966586e-01 -10.661375 9.966586e-01 -10.661375 1.978321e-01 -128.610576
7.430000e+00 1.976469e-01 -129.684757 9.967548e-01 -11.164667 9.967548e-01 -11.164667 1.976469e-01 -129.684757
7.440000e+00 1.974643e-01 -130.761574 9.968503e-01 -11.668096 9.968503e-01 -11.668096 1.974643e-01 -130.761574
7.450000e+00 1.972841e-01 -131.841198 9.969450e-01 -12.171646 9.969450e-01 -12.171646 1.972841e-01 -131.841198
7.460000e+00 1.971075e-01 -132.923344 9.970377e-01 -12.675322 9.970377e-01 -12.675322 1.971075e-01 -132.923344
7.470000e+00 1.969333e-01 -134.008354 9.971300e-01 -13.179021 9.971300e-01 -13.179021 1.969333e-01 -134.008354
7.480000e+00 1.967619e-01 -135.096172 9.972214e-01 -13.682908 9.972214e-01 -13.682908 1.967619e-01 -135.096172
7.490000e+00 1.965945e-01 -136.186510 9.973124e-01 -14.186842 9.973124e-01 -14.186842 1.965945e-01 -136.186510
7.500000e+00 1.964292e-01 -137.279485 9.974009e-01 -14.690890 9.974009e-01 -14.690890 1.964292e-01 -137.279485
7.510000e+00 1.962691e-01 -138.375094 9.974899e-01 -15.194995 9.974899e-01 -15.194995 1.962691e-01 -138.375094
7.520000e+00 1.961125e-01 -139.473454 9.975760e-01 -15.699193 9.975760e-01 -15.699193 1.961125e-01 -139.473454
7.530000e+00 1.959595e-01 -140.574450 9.976626e-01 -16.203527 9.976626e-01 -16.203527 1.959595e-01 -140.574450
7.540000e+00 1.958111e-01 -141.677852 9.977471e-01 -16.707908 9.977471e-01 -16.707908 1.958111e-01 -141.677852
7.550000e+00 1.956668e-01 -142.783833 9.978315e-01 -17.212397 9.978315e-01 -17.212397 1.956668e-01 -142.783833
7.560000e+00 1.955269e-01 -143.892678 9.979136e-01 -17.716955 9.979136e-01 -17.716955 1.955269e-01 -143.892678
7.570000e+00 1.953921e-01 -145.003700 9.979964e-01 -18.221628 9.979964e-01 -18.221628 1.953921e-01 -145.003700
7.580000e+00 1.952617e-01 -146.117072 9.980764e-01 -18.726346 9.980764e-01 -18.726346 1.952617e-01 -146.117072
7.590000e+00 1.951361e-01 -147.233137 9.981567e-01 -19.231157 9.981567e-01 -19.231157 1.951361e-01 -147.233137
7.600000e+00 1.950169e-01 -148.351722 9.982352e-01 -19.736076 9.982352e-01 -19.736076 1.950169e-01 -148.351722
7.610000e+00 1.949021e-01 -149.472599 9.983138e-01 -20.241103 9.983138e-01 -20.241103 1.949021e-01 -149.472599
7.620000e+00 1.947927e-01 -150.595769 9.983909e-01 -20.746200 9.983909e-01 -20.746200 1.947927e-01 -150.595769
7.630000e+00 1.946903e-01 -151.721516 9.984667e-01 -21.251394 9.984667e-01 -21.251394 1.946903e-01 -151.721516
7.640000e+00 1.945922e-01 -152.849326 9.985417e-01 -21.756669 9.985417e-01 -21.756669 1.945922e-01 -152.849326
7.650000e+00 1.945011e-01 -153.979543 9.986156e-01 -22.262000 9.986156e-01 -22.262000 1.945011e-01 -153.979543
7.660000e+00 1.944169e-01 -155.112108 9.986889e-01 -22.767486 9.986889e-01 -22.767486 1.944169e-01 -155.112108
7.670000e+00 1.943377e-01 -156.246679 9.987609e-01 -23.273059 9.987609e-01 -23.273059 1.943377e-01 -156.246679
7.680000e+00 1.942660e-01 -157.383600 9.988321e-01 -23.778682 9.988321e-01 -23.778682 1.942660e-01 -157.383600
7.690000e+00 1.942009e-01 -158.522582 9.989022e-01 -24.284484 9.989022e-01 -24.284484 1.942009e-01 -158.522582
7.700000e+00 1.941431e-01 -159.663742 9.989698e-01 -24.790337 9.989698e-01 -24.790337 1.941431e-01 -159.663742
7.710000e+00 1.940913e-01 -160.806908 9.990366e-01 -25.296310 9.990366e-01 -25.296310 1.940913e-01 -160.806908
7.720000e+00 1.940475e-01 -161.952136 9.991033e-01 -25.802432 9.991033e-01 -25.802432 1.940475e-01 -161.952136
7.730000e+00 1.940103e-01 -163.099312 9.991670e-01 -26.308629 9.991670e-01 -26.308629 1.940103e-01 -163.099312
7.740000e+00 1.939814e-01 -164.248493 9.992300e-01 -26.814946 9.992300e-01 -26.814946 1.939814e-01 -164.248493
7.750000e+00 1.939595e-01 -165.399508 9.992906e-01 -27.321349 9.992906e-01 -27.321349 1.939595e-01 -165.399508
7.760000e+00 1.939454e-01 -166.552414 9.993505e-01 -27.827827 9.993505e-01 -27.827827 1.939454e-01 -166.552414
7.770000e+00 1.939396e-01 -167.707153 9.994073e-01 -28.334499 9.994073e-01 -28.334499 1.939396e-01 -167.707153
7.780000e+00 1.939409e-01 -168.863611 9.994635e-01 -28.841206 9.994635e-01 -28.841206 1.939409e-01 -168.863611
7.790000e+00 1.939518e-01 -170.021788 9.995166e-01 -29.348073 9.995166e-01 -29.348073 1.939518e-01 -170.021788
7.800000e+00 1.939699e-01 -171.181626 9.995674e-01 -29.854974 9.995674e-01 -29.854974 1.939699e-01 -171.181626
7.810000e+00 1.939958e-01 -172.343012 9.996165e-01 -30.362019 9.996165e-01 -30.362019 1.939958e-01 -172.343012
7.820000e+00 1.940310e-01 -173.506002 9.996628e-01 -30.869138 9.996628e-01 -30.869138 1.940310e-01 -173.506002
7.830000e+00 1.940740e-01 -174.670424 9.997075e-01 -31.376355 9.997075e-01 -31.376355 1.940740e-01 -174.670424
7.840000e+00 1.941264e-01 -175.836278 9.997493e-01 -31.883606 9.997493e-01 -31.883606 1.941264e-01 -175.836278
7.850000e+00 1.941875e-01 -177.003565 9.997876e-01 -32.390971 9.997876e-01 -32.390971 1.941875e-01 -177.003565
7.860000e+00 1.942568e-01 -178.172113 9.998244e-01 -32.898360 9.998244e-01 -32.898360 1.942568e-01 -178.172113
7.870000e+00 1.943348e-01 -179.341921 9.998580e-01 -33.405863 9.998580e-01 -33.405863 1.943348e-01 -179.341921
7.880000e+00 1.944228e-01 179.487108 9.998891e-01 -33.913378 9.998891e-01 -33.913378 1.944228e-01 179.487108
7.890000e+00 1.945191e-01 178.315008 9.999162e-01 -34.420927 9.999162e-01 -34.420927 1.945191e-01 178.315008
7.900000e+00 1.946251e-01 177.141877 9.999417e-01 -34.928544 9.999417e-01 -34.928544 1.946251e-01 177.141877
7.910000e+00 1.947400e-01 175.967772 9.999645e-01 -35.436168 9.999645e-01 -35.436168 1.947400e-01 175.967772
7.920000e+00 1.948642e-01 174.792750 9.999846e-01 -35.943774 9.999846e-01 -35.943774 1.948642e-01 174.792750
7.930000e+00 1.949969e-01 173.616869 1.000001e+00 -36.451432 1.000001e+00 -36.451432 1.949969e-01 173.616869
7.940000e+00 1.951401e-01 172.440243 1.000016e+00 -36.959072 1.000016e+00 -36.959072 1.951401e-01 172.440243
7.950000e+00 1.952922e-01 171.262872 1.000028e+00 -37.466696 1.000028e+00 -37.466696 1.952922e-01 171.262872
7.960000e+00 1.954543e-01 170.084928 1.000037e+00 -37.974313 1.000037e+00 -37.974313 1.954543e-01 170.084928
7.970000e+00 1.956264e-01 168.906468 1.000045e+00 -38.481965 1.000045e+00 -38.481965 1.956264e-01 168.906468
7.980000e+00 1.958077e-01 167.727436 1.000049e+00 -38.989520 1.000049e+00 -38.989520 1.958077e-01 167.727436
7.990000e+00 1.959982e-01 166.548002 1.000052e+00 -39.497086 1.000052e+00 -39.497086 1.959982e-01 166.548002
8.000000e+00 1.961988e-01 165.368282 1.000052e+00 -40.004647 1.000052e+00 -40.004647 1.961988e-01 165.368282
8.010000e+00 1.964087e-01 164.188218 1.000051e+00 -40.512133 1.000051e+00 -40.512133 1.964087e-01 164.188218
8.020000e+00 1.966296e-01 163.008097 1.000048e+00 -41.019624 1.000048e+00 -41.019624 1.966296e-01 163.008097
8.030000e+00 1.968596e-01 161.827804 1.000043e+00 -41.527047 1.000043e+00 -41.527047 1.968596e-01 161.827804
8.040000e+00 1.970996e-01 160.647511 1.000036e+00 -42.034481 1.000036e+00 -42.034481 1.970996e-01 160.647511
8.050000e+00 1.973493e-01 159.467161 1.000028e+00 -42.541881 1.000028e+00 -42.541881 1.973493e-01 159.467161
8.060000e+00 1.976097e-01 158.286982 1.000018e+00 -43.049224 1.000018e+00 -43.049224 1.976097e-01 158.286982
8.070000e+00 1.978794e-01 157.106975 1.000009e+00 -43.556538 1.000009e+00 -43.556538 1.978794e-01 157.106975
8.080000e+00 1.981593e-01 155.927198 9.999959e-01 -44.063875 9.999959e-01 -44.063875 1.981593e-01 155.927198
8.090000e+00 1.984491e-01 154.747764 9.999838e-01 -44.571143 9.999838e-01 -44.571143 1.984491e-01 154.747764
8.100000e+00 1.987486e-01 153.568617 9.999694e-01 -45.078480 9.999694e-01 -45.078480 1.987486e-01 153.568617
8.110000e+00 1.990592e-01 152.390100 9.999543e-01 -45.585754 9.999543e-01 -45.585754 1.990592e-01 152.390100
8.120000e+00 1.993788e-01 151.211985 9.999383e-01 -46.093005 9.999383e-01 -46.093005 1.993788e-01 151.211985
8.130000e+00 1.997088e-01 150.034499 9.999208e-01 -46.600325 9.999208e-01 -46.600325 1.997088e-01 150.034499
8.140000e+00 2.000493e-01 148.857529 9.999032e-01 -47.107662 9.999032e-01 -47.107662 2.000493e-01 148.857529
8.150000e+00 2.003988e-01 147.681591 9.998840e-01 -47.614987 9.998840e-01 -47.614987 2.003988e-01 147.681591
8.160000e+00 2.007588e-01 146.506225 9.998639e-01 -48.122376 9.998639e-01 -48.122376 2.007588e-01 146.506225
8.170000e+00 2.011295e-01 145.331833 9.998423e-01 -48.629753 9.998423e-01 -48.629753 2.011295e-01 145.331833
8.180000e+00 2.015096e-01 144.158129 9.998197e-01 -49.137199 9.998197e-01 -49.137199 2.015096e-01 144.158129
8.190000e+00 2.018992e-01 142.985457 9.997955e-01 -49.644713 9.997955e-01 -49.644713 2.018992e-01 142.985457
8.200000e+00 2.022990e-01 141.814216 9.997702e-01 -50.152216 9.997702e-01 -50.152216 2.022990e-01 141.814216
8.210000e+00 2.027088e-01 140.643721 9.997433e-01 -50.659794 9.997433e-01 -50.659794 2.027088e-01 140.643721
8.220000e+00 2.031280e-01 139.474085 9.997139e-01 -51.167452 9.997139e-01 -51.167452 2.031280e-01 139.474085
8.230000e+00 2.035570e-01 138.306168 9.996825e-01 -51.675109 9.996825e-01 -51.675109 2.035570e-01 138.306168
8.240000e+00 2.039961e-01 137.139224 9.996494e-01 -52.182893 9.996494e-01 -52.182893 2.039961e-01 137.139224
8.250000e+00 2.044449e-01 135.973656 9.996142e-01 -52.690677 9.996142e-01 -52.690677 2.044449e-01 135.973656
8.260000e+00 2.049023e-01 134.809406 9.995763e-01 -53.198553 9.995763e-01 -53.198553 2.049023e-01 134.809406
8.270000e+00 2.053700e-01 133.646588 9.995362e-01 -53.706445 9.995362e-01 -53.706445 2.053700e-01 133.646588
8.280000e+00 2.058468e-01 132.485260 9.994930e-01 -54.214349 9.994930e-01 -54.214349 2.058468e-01 132.485260
8.290000e+00 2.063330e-01 131.325479 9.994467e-01 -54.722328 9.994467e-01 -54.722328 2.063330e-01 131.325479
8.300000e+00 2.068280e-01 130.167130 9.993985e-01 -55.230318 9.993985e-01 -55.230318 2.068280e-01 130.167130
8.310000e+00 2.073319e-01 129.010615 9.993455e-01 -55.738314 9.993455e-01 -55.738314 2.073319e-01 129.010615
8.320000e+00 2.078450e-01 127.855589 9.992902e-01 -56.246339 9.992902e-01 -56.246339 2.078450e-01 127.855589
8.330000e+00 2.083673e-01 126.702225 9.992318e-01 -56.754323 9.992318e-01 -56.754323 2.083673e-01 126.702225
8.340000e+00 2.088982e-01 125.550637 9.991695e-01 -57.262353 9.991695e-01 -57.262353 2.088982e-01 125.550637
8.350000e+00 2.094376e-01 124.400883 9.991041e-01 -57.770303 9.991041e-01 -57.770303 2.094376e-01 124.400883
8.360000e+00 2.099865e-01 123.252905 9.990343e-01 -58.278230 9.990343e-01 -58.278230 2.099865e-01 123.252905
8.370000e+00 2.105425e-01 122.106760 9.989624e-01 -58.786100 9.989624e-01 -58.786100 2.105425e-01 122.106760
8.380000e+00 2.111070e-01 120.962621 9.988856e-01 -59.293913 9.988856e-01 -59.293913 2.111070e-01 120.962621
8.390000e+00 2.116808e-01 119.820315 9.988060e-01 -59.801610 9.988060e-01 -59.801610 2.116808e-01 119.820315
8.400000e+00 2.122616e-01 118.680014 9.987224e-01 -60.309308 9.987224e-01 -60.309308 2.122616e-01 118.680014
8.410000e+00 2.128506e-01 117.541833 9.986364e-01 -60.816834 9.986364e-01 -60.816834 2.128506e-01 117.541833
8.420000e+00 2.134473e-01 116.405601 9.985474e-01 -61.324246 9.985474e-01 -61.324246 2.134473e-01 116.405601
8.430000e+00 2.140518e-01 115.271488 9.984545e-01 -61.831543 9.984545e-01 -61.831543 2.140518e-01 115.271488
8.440000e+00 2.146638e-01 114.139495 9.983599e-01 -62.338725 9.983599e-01 -62.338725 2.146638e-01 114.139495
8.450000e+00 2.152831e-01 113.009623 9.982613e-01 -62.845735 9.982613e-01 -62.845735 2.152831e-01 113.009623
8.460000e+00 2.159095e-01 111.881984 9.981608e-01 -63.352631 9.981608e-01 -63.352631 2.159095e-01 111.881984
8.470000e+00 2.165437e-01 110.756466 9.980579e-01 -63.859412 9.980579e-01 -63.859412 2.165437e-01 110.756466
8.480000e+00 2.171845e-01 109.633240 9.979520e-01 -64.365907 9.979520e-01 -64.365907 2.171845e-01 109.633240
8.490000e+00 2.178316e-01 108.512305 9.978449e-01 -64.872344 9.978449e-01 -64.872344 2.178316e-01 108.512305
8.500000e+00 2.184856e-01 107.393605 9.977369e-01 -65.378552 9.977369e-01 -65.378552 2.184856e-01 107.393605
8.510000e+00 2.191471e-01 106.277197 9.976260e-01 -65.884646 9.976260e-01 -65.884646 2.191471e-01 106.277197
8.520000e+00 2.198138e-01 105.163137 9.975144e-01 -66.390510 9.975144e-01 -66.390510 2.198138e-01 105.163137
8.530000e+00 2.204874e-01 104.051427 9.974028e-01 -66.896260 9.974028e-01 -66.896260 2.204874e-01 104.051427
8.540000e+00 2.211663e-01 102.942124 9.972893e-01 -67.401838 9.972893e-01 -67.401838 2.211663e-01 102.942124
8.550000e+00 2.218521e-01 101.835112 9.971755e-01 -67.907244 9.971755e-01 -67.907244 2.218521e-01 101.835112
8.560000e+00 2.225434e-01 100.730507 9.970609e-01 -68.412536 9.970609e-01 -68.412536 2.225434e-01 100.730507
8.570000e+00 2.232407e-01 99.628308 9.969462e-01 -68.917655 9.969462e-01 -68.917655 2.232407e-01 99.628308
8.580000e+00 2.239433e-01 98.528515 9.968317e-01 -69.422603 9.968317e-01 -69.422603 2.239433e-01 98.528515
8.590000e+00 2.246509e-01 97.431187 9.967168e-01 -69.927436 9.967168e-01 -69.927436 2.246509e-01 97.431187
8.600000e+00 2.253647e-01 96.336264 9.966019e-01 -70.432212 9.966019e-01 -70.432212 2.253647e-01 96.336264
8.610000e+00 2.260832e-01 95.243806 9.964873e-01 -70.936816 9.964873e-01 -70.936816 2.260832e-01 95.243806
8.620000e+00 2.268058e-01 94.153811 9.963728e-01 -71.441420 9.963728e-01 -71.441420 2.268058e-01 94.153811
8.630000e+00 2.275338e-01 93.066280 9.962590e-01 -71.945795 9.962590e-01 -71.945795 2.275338e-01 93.066280
8.640000e+00 2.282664e-01 91.981155 9.961453e-01 -72.450227 9.961453e-01 -72.450227 2.282664e-01 91.981155
8.650000e+00 2.290042e-01 90.898494 9.960312e-01 -72.954544 9.960312e-01 -72.954544 2.290042e-01 90.898494
8.660000e+00 2.297452e-01 89.818354 9.959177e-01 -73.458804 9.959177e-01 -73.458804 2.297452e-01 89.818354
8.670000e+00 2.304907e-01 88.740620 9.958049e-01 -73.963064 9.958049e-01 -73.963064 2.304907e-01 88.740620
8.680000e+00 2.312399e-01 87.665350 9.956910e-01 -74.467267 9.956910e-01 -74.467267 2.312399e-01 87.665350
8.690000e+00 2.319931e-01 86.592544 9.955771e-01 -74.971413 9.955771e-01 -74.971413 2.319931e-01 86.592544
8.700000e+00 2.327504e-01 85.522144 9.954632e-01 -75.475558 9.954632e-01 -75.475558 2.327504e-01 85.522144
8.710000e+00 2.335110e-01 84.454265 9.953495e-01 -75.979704 9.953495e-01 -75.979704 2.335110e-01 84.454265
8.720000e+00 2.342749e-01 83.388793 9.952338e-01 -76.483907 9.952338e-01 -76.483907 2.342749e-01 83.388793
8.730000e+00 2.350412e-01 82.325727 9.951177e-01 -76.987995 9.951177e-01 -76.987995 2.350412e-01 82.325727
8.740000e+00 2.358110e-01 81.265125 9.950011e-01 -77.492141 9.950011e-01 -77.492141 2.358110e-01 81.265125
8.750000e+00 2.365834e-01 80.206929 9.948820e-01 -77.996286 9.948820e-01 -77.996286 2.365834e-01 80.206929
8.760000e+00 2.373593e-01 79.151140 9.947628e-01 -78.500375 9.947628e-01 -78.500375 2.373593e-01 79.151140
8.770000e+00 2.381367e-01 78.097757 9.946405e-01 -79.004463 9.946405e-01 -79.004463 2.381367e-01 78.097757
8.780000e+00 2.389166e-01 77.046838 9.945170e-01 -79.508608 9.945170e-01 -79.508608 2.389166e-01 77.046838
8.790000e+00 2.396989e-01 75.998268 9.943918e-01 -80.012697 9.943918e-01 -80.012697 2.396989e-01 75.998268
8.800000e+00 2.404834e-01 74.952104 9.942628e-01 -80.516728 9.942628e-01 -80.516728 2.404834e-01 74.952104
8.810000e+00 2.412691e-01 73.908290 9.941332e-01 -81.020759 9.941332e-01 -81.020759 2.412691e-01 73.908290
8.820000e+00 2.420568e-01 72.866882 9.939999e-01 -81.524732 9.939999e-01 -81.524732 2.420568e-01 72.866882
8.830000e+00 2.428453e-01 71.827765 9.938632e-01 -82.028649 9.938632e-01 -82.028649 2.428453e-01 71.827765
8.840000e+00 2.436355e-01 70.790998 9.937251e-01 -82.532450 9.937251e-01 -82.532450 2.436355e-01 70.790998
8.850000e+00 2.444269e-01 69.756638 9.935828e-01 -83.036138 9.935828e-01 -83.036138 2.444269e-01 69.756638
8.860000e+00 2.452195e-01 68.724569 9.934381e-01 -83.539768 9.934381e-01 -83.539768 2.452195e-01 68.724569
8.870000e+00 2.460127e-01 67.694849 9.932902e-01 -84.043283 9.932902e-01 -84.043283 2.460127e-01 67.694849
8.880000e+00 2.468065e-01 66.667421 9.931401e-01 -84.546626 9.931401e-01 -84.546626 2.468065e-01 66.667421
8.890000e+00 2.476006e-01 65.642170 9.929867e-01 -85.049798 9.929867e-01 -85.049798 2.476006e-01 65.642170
8.900000e+00 2.483948e-01 64.619498 9.928302e-01 -85.552797 9.928302e-01 -85.552797 2.483948e-01 64.619498
8.910000e+00 2.491889e-01 63.598774 9.926713e-01 -86.055625 9.926713e-01 -86.055625 2.491889e-01 63.598774
8.920000e+00 2.499840e-01 62.580284 9.925092e-01 -86.558224 9.925092e-01 -86.558224 2.499840e-01 62.580284
8.930000e+00 2.507790e-01 61.564315 9.923456e-01 -87.060650 9.923456e-01 -87.060650 2.507790e-01 61.564315
8.940000e+00 2.515732e-01 60.550352 9.921795e-01 -87.562791 9.921795e-01 -87.562791 2.515732e-01 60.550352
8.950000e+00 2.523676e-01 59.538795 9.920109e-01 -88.064644 9.920109e-01 -88.064644 2.523676e-01 59.538795
8.960000e+00 2.531612e-01 58.529300 9.918415e-01 -88.566269 9.918415e-01 -88.566269 2.531612e-01 58.529300
8.970000e+00 2.539539e-01 57.522041 9.916713e-01 -89.067664 9.916713e-01 -89.067664 2.539539e-01 57.522041
8.980000e+00 2.547463e-01 56.516969 9.914991e-01 -89.568716 9.914991e-01 -89.568716 2.547463e-01 56.516969
8.990000e+00 2.555368e-01 55.514041 9.913267e-01 -90.069538 9.913267e-01 -90.069538 2.555368e-01 55.514041
9.000000e+00 2.563279e-01 54.513279 9.911541e-01 -90.570017 9.911541e-01 -90.570017 2.563279e-01 54.513279
9.010000e+00 2.571172e-01 53.514459 9.909809e-01 -91.070266 9.909809e-01 -91.070266 2.571172e-01 53.514459
9.020000e+00 2.579053e-01 52.517867 9.908090e-01 -91.570172 9.908090e-01 -91.570172 2.579053e-01 52.517867
9.030000e+00 2.586919e-01 51.523344 9.906373e-01 -92.069849 9.906373e-01 -92.069849 2.586919e-01 51.523344
9.040000e+00 2.594774e-01 50.530867 9.904666e-01 -92.569181 9.904666e-01 -92.569181 2.594774e-01 50.530867
9.050000e+00 2.602613e-01 49.540280 9.902977e-01 -93.068285 9.902977e-01 -93.068285 2.602613e-01 49.540280
9.060000e+00 2.610441e-01 48.551871 9.901303e-01 -93.567159 9.901303e-01 -93.567159 2.610441e-01 48.551871
9.070000e+00 2.618247e-01 47.565329 9.899654e-01 -94.065690 9.899654e-01 -94.065690 2.618247e-01 47.565329
9.080000e+00 2.626034e-01 46.580638 9.898017e-01 -94.564048 9.898017e-01 -94.564048 2.626034e-01 46.580638
9.090000e+00 2.633805e-01 45.598078 9.896411e-01 -95.062178 9.896411e-01 -95.062178 2.633805e-01 45.598078
9.100000e+00 2.641555e-01 44.617180 9.894834e-01 -95.560078 9.894834e-01 -95.560078 2.641555e-01 44.617180
9.110000e+00 2.649280e-01 43.638379 9.893295e-01 -96.057807 9.893295e-01 -96.057807 2.649280e-01 43.638379
9.120000e+00 2.656989e-01 42.661194 9.891773e-01 -96.555363 9.891773e-01 -96.555363 2.656989e-01 42.661194
9.130000e+00 2.664677e-01 41.685768 9.890286e-01 -97.052805 9.890286e-01 -97.052805 2.664677e-01 41.685768
9.140000e+00 2.672339e-01 40.712221 9.888832e-01 -97.550075 9.888832e-01 -97.550075 2.672339e-01 40.712221
9.150000e+00 2.679969e-01 39.740370 9.887411e-01 -98.047231 9.887411e-01 -98.047231 2.679969e-01 39.740370
9.160000e+00 2.687582e-01 38.770215 9.886023e-01 -98.544329 9.886023e-01 -98.544329 2.687582e-01 38.770215
9.170000e+00 2.695159e-01 37.801836 9.884665e-01 -99.041370 9.884665e-01 -99.041370 2.695159e-01 37.801836
9.180000e+00 2.702709e-01 36.834792 9.883337e-01 -99.538296 9.883337e-01 -99.538296 2.702709e-01 36.834792
9.190000e+00 2.710237e-01 35.869519 9.882037e-01 -100.035222 9.882037e-01 -100.035222 2.710237e-01 35.869519
9.200000e+00 2.717725e-01 34.905786 9.880767e-01 -100.532149 9.880767e-01 -100.532149 2.717725e-01 34.905786
9.210000e+00 2.725180e-01 33.943435 9.879522e-01 -101.029075 9.879522e-01 -101.029075 2.725180e-01 33.943435
9.220000e+00 2.732600e-01 32.982728 9.878295e-01 -101.526001 9.878295e-01 -101.526001 2.732600e-01 32.982728
9.230000e+00 2.739989e-01 32.023362 9.877081e-01 -102.022928 9.877081e-01 -102.022928 2.739989e-01 32.023362
9.240000e+00 2.747336e-01 31.065405 9.875893e-01 -102.519969 9.875893e-01 -102.519969 2.747336e-01 31.065405
9.250000e+00 2.754648e-01 30.109007 9.874717e-01 -103.017009 9.874717e-01 -103.017009 2.754648e-01 30.109007
9.260000e+00 2.761912e-01 29.153777 9.873550e-01 -103.513993 9.873550e-01 -103.513993 2.761912e-01 29.153777
9.270000e+00 2.769138e-01 28.200037 9.872387e-01 -104.011148 9.872387e-01 -104.011148 2.769138e-01 28.200037
9.280000e+00 2.776329e-01 27.247478 9.871220e-01 -104.508304 9.871220e-01 -104.508304 2.776329e-01 27.247478
9.290000e+00 2.783466e-01 26.296248 9.870061e-01 -105.005517 9.870061e-01 -105.005517 2.783466e-01 26.296248
9.300000e+00 2.790556e-01 25.346203 9.868893e-01 -105.502730 9.868893e-01 -105.502730 2.790556e-01 25.346203
9.310000e+00 2.797601e-01 24.397494 9.867718e-01 -106.000000 9.867718e-01 -106.000000 2.797601e-01 24.397494
9.320000e+00 2.804596e-01 23.449885 9.866534e-01 -106.497270 9.866534e-01 -106.497270 2.804596e-01 23.449885
9.330000e+00 2.811533e-01 22.503593 9.865341e-01 -106.994482 9.865341e-01 -106.994482 2.811533e-01 22.503593
9.340000e+00 2.818427e-01 21.558414 9.864126e-01 -107.491753 9.864126e-01 -107.491753 2.818427e-01 21.558414
9.350000e+00 2.825259e-01 20.614454 9.862889e-01 -107.989023 9.862889e-01 -107.989023 2.825259e-01 20.614454
9.360000e+00 2.832043e-01 19.671497 9.861646e-01 -108.486121 9.861646e-01 -108.486121 2.832043e-01 19.671497
9.370000e+00 2.838760e-01 18.729738 9.860364e-01 -108.983162 9.860364e-01 -108.983162 2.838760e-01 18.729738
9.380000e+00 2.845426e-01 17.789039 9.859070e-01 -109.480145 9.859070e-01 -109.480145 2.845426e-01 17.789039
9.390000e+00 2.852028e-01 16.849428 9.857762e-01 -109.976957 9.857762e-01 -109.976957 2.852028e-01 16.849428
9.400000e+00 2.858574e-01 15.910866 9.856427e-01 -110.473597 9.856427e-01 -110.473597 2.858574e-01 15.910866
9.410000e+00 2.865060e-01 14.973352 9.855068e-01 -110.970122 9.855068e-01 -110.970122 2.865060e-01 14.973352
9.420000e+00 2.871474e-01 14.036950 9.853700e-01 -111.466418 9.853700e-01 -111.466418 2.871474e-01 14.036950
9.430000e+00 2.877830e-01 13.101517 9.852300e-01 -111.962428 9.852300e-01 -111.962428 2.877830e-01 13.101517
9.440000e+00 2.884126e-01 12.167108 9.850894e-01 -112.458323 9.850894e-01 -112.458323 2.884126e-01 12.167108
9.450000e+00 2.890347e-01 11.233737 9.849477e-01 -112.953816 9.849477e-01 -112.953816 2.890347e-01 11.233737
9.460000e+00 2.896509e-01 10.301323 9.848062e-01 -113.449081 9.848062e-01 -113.449081 2.896509e-01 10.301323
9.470000e+00 2.902607e-01 9.369905 9.846630e-01 -113.944059 9.846630e-01 -113.944059 2.902607e-01 9.369905
9.480000e+00 2.908636e-01 8.439439 9.845205e-01 -114.438694 9.845205e-01 -114.438694 2.908636e-01 8.439439
9.490000e+00 2.914591e-01 7.509964 9.843788e-01 -114.932985 9.843788e-01 -114.932985 2.914591e-01 7.509964
9.500000e+00 2.920486e-01 6.581411 9.842371e-01 -115.426989 9.842371e-01 -115.426989 2.920486e-01 6.581411
9.510000e+00 2.926305e-01 5.653783 9.840976e-01 -115.920592 9.840976e-01 -115.920592 2.926305e-01 5.653783
9.520000e+00 2.932063e-01 4.727061 9.839605e-01 -116.413909 9.839605e-01 -116.413909 2.932063e-01 4.727061
9.530000e+00 2.937753e-01 3.801225 9.838257e-01 -116.906881 9.838257e-01 -116.906881 2.937753e-01 3.801225
9.540000e+00 2.943378e-01 2.876238 9.836943e-01 -117.399511 9.836943e-01 -117.399511 2.943378e-01 2.876238
9.550000e+00 2.948931e-01 1.952112 9.835661e-01 -117.891796 9.835661e-01 -117.891796 2.948931e-01 1.952112
9.560000e+00 2.954426e-01 1.028795 9.834418e-01 -118.383737 9.834418e-01 -118.383737 2.954426e-01 1.028795
9.570000e+00 2.959845e-01 0.106277 9.833227e-01 -118.875393 9.833227e-01 -118.875393 2.959845e-01 0.106277
9.580000e+00 2.965200e-01 -0.815472 9.832085e-01 -119.366818 9.832085e-01 -119.366818 2.965200e-01 -0.815472
9.590000e+00 2.970484e-01 -1.736485 9.831010e-01 -119.858015 9.831010e-01 -119.858015 2.970484e-01 -1.736485
9.600000e+00 2.975709e-01 -2.656783 9.829982e-01 -120.348983 9.829982e-01 -120.348983 2.975709e-01 -2.656783
9.610000e+00 2.980865e-01 -3.576407 9.829017e-01 -120.839721 9.829017e-01 -120.839721 2.980865e-01 -3.576407
9.620000e+00 2.985946e-01 -4.495388 9.828114e-01 -121.330288 9.828114e-01 -121.330288 2.985946e-01 -4.495388
9.630000e+00 2.990972e-01 -5.413771 9.827284e-01 -121.820739 9.827284e-01 -121.820739 2.990972e-01 -5.413771
9.640000e+00 2.995924e-01 -6.331562 9.826528e-01 -122.311134 9.826528e-01 -122.311134 2.995924e-01 -6.331562
9.650000e+00 3.000814e-01 -7.248833 9.825829e-01 -122.801414 9.825829e-01 -122.801414 3.000814e-01 -7.248833
9.660000e+00 3.005642e-01 -8.165594 9.825204e-01 -123.291694 9.825204e-01 -123.291694 3.005642e-01 -8.165594
9.670000e+00 3.010399e-01 -9.081902 9.824641e-01 -123.782031 9.824641e-01 -123.782031 3.010399e-01 -9.081902
9.680000e+00 3.015096e-01 -9.997781 9.824156e-01 -124.272369 9.824156e-01 -124.272369 3.015096e-01 -9.997781
9.690000e+00 3.019722e-01 -10.913299 9.823729e-01 -124.762763 9.823729e-01 -124.762763 3.019722e-01 -10.913299
9.700000e+00 3.024279e-01 -11.828490 9.823364e-01 -125.253330 9.823364e-01 -125.253330 3.024279e-01 -11.828490
9.710000e+00 3.028765e-01 -12.743389 9.823048e-01 -125.744011 9.823048e-01 -125.744011 3.028765e-01 -12.743389
9.720000e+00 3.033191e-01 -13.658002 9.822791e-01 -126.234864 9.822791e-01 -126.234864 3.033191e-01 -13.658002
9.730000e+00 3.037547e-01 -14.572414 9.822593e-01 -126.725888 9.822593e-01 -126.725888 3.037547e-01 -14.572414
9.740000e+00 3.041831e-01 -15.486654 9.822418e-01 -127.217200 9.822418e-01 -127.217200 3.041831e-01 -15.486654
9.750000e+00 3.046053e-01 -16.400728 9.822290e-01 -127.708626 9.822290e-01 -127.708626 3.046053e-01 -16.400728
9.760000e+00 3.050201e-01 -17.314693 9.822202e-01 -128.200453 9.822202e-01 -128.200453 3.050201e-01 -17.314693
9.770000e+00 3.054276e-01 -18.228618 9.822129e-01 -128.692394 9.822129e-01 -128.692394 3.054276e-01 -18.228618
9.780000e+00 3.058276e-01 -19.142577 9.822078e-01 -129.184622 9.822078e-01 -129.184622 3.058276e-01 -19.142577
9.790000e+00 3.062207e-01 -20.056433 9.822037e-01 -129.677194 9.822037e-01 -129.677194 3.062207e-01 -20.056433
9.800000e+00 3.066056e-01 -20.970255 9.822009e-01 -130.169880 9.822009e-01 -130.169880 3.066056e-01 -20.970255
9.810000e+00 3.069846e-01 -21.884209 9.821973e-01 -130.662911 9.821973e-01 -130.662911 3.069846e-01 -21.884209
9.820000e+00 3.073541e-01 -22.798277 9.821931e-01 -131.156113 9.821931e-01 -131.156113 3.073541e-01 -22.798277
9.830000e+00 3.077168e-01 -23.712391 9.821885e-01 -131.649487 9.821885e-01 -131.649487 3.077168e-01 -23.712391
9.840000e+00 3.080726e-01 -24.626660 9.821814e-01 -132.143147 9.821814e-01 -132.143147 3.080726e-01 -24.626660
9.850000e+00 3.084191e-01 -25.541204 9.821729e-01 -132.636865 9.821729e-01 -132.636865 3.084191e-01 -25.541204
9.860000e+00 3.087586e-01 -26.455753 9.821608e-01 -133.130697 9.821608e-01 -133.130697 3.087586e-01 -26.455753
9.870000e+00 3.090891e-01 -27.370618 9.821474e-01 -133.624644 9.821474e-01 -133.624644 3.090891e-01 -27.370618
9.880000e+00 3.094118e-01 -28.285591 9.821298e-01 -134.118648 9.821298e-01 -134.118648 3.094118e-01 -28.285591
9.890000e+00 3.097261e-01 -29.200662 9.821096e-01 -134.612595 9.821096e-01 -134.612595 3.097261e-01 -29.200662
9.900000e+00 3.100322e-01 -30.116134 9.820846e-01 -135.106542 9.820846e-01 -135.106542 3.100322e-01 -30.116134
9.910000e+00 3.103298e-01 -31.031738 9.820577e-01 -135.600374 9.820577e-01 -135.600374 3.103298e-01 -31.031738
9.920000e+00 3.106201e-01 -31.947685 9.820272e-01 -136.094149 9.820272e-01 -136.094149 3.106201e-01 -31.947685
9.930000e+00 3.109005e-01 -32.863748 9.819940e-01 -136.587753 9.819940e-01 -136.587753 3.109005e-01 -32.863748
9.940000e+00 3.111733e-01 -33.780205 9.819578e-01 -137.081127 9.819578e-01 -137.081127 3.111733e-01 -33.780205
9.950000e+00 3.114374e-01 -34.696886 9.819191e-01 -137.574271 9.819191e-01 -137.574271 3.114374e-01 -34.696886
9.960000e+00 3.116931e-01 -35.613859 9.818794e-01 -138.067130 9.818794e-01 -138.067130 3.116931e-01 -35.613859
9.970000e+00 3.119405e-01 -36.531016 9.818376e-01 -138.559759 9.818376e-01 -138.559759 3.119405e-01 -36.531016
9.980000e+00 3.121799e-01 -37.448407 9.817956e-01 -139.051929 9.817956e-01 -139.051929 3.121799e-01 -37.448407
9.990000e+00 3.124103e-01 -38.366314 9.817539e-01 -139.543814 9.817539e-01 -139.543814 3.124103e-01 -38.366314
1.000000e+01 3.126332e-01 -39.284404 9.817131e-01 -140.035354 9.817131e-01 -140.035354 3.126332e-01 -39.284404
